#------------------------------------------------------------------------------
#$Date: 2025-08-19 21:17:10 +0300 (Tue, 19 Aug 2025) $
#$Revision: 301807 $
#$URL: file:///home/coder/svn-repositories/cod/cif/2/24/22/2242211.cif $
#------------------------------------------------------------------------------
#
# This file is available in the Crystallography Open Database (COD),
# http://www.crystallography.net/. The original data for this entry
# were provided by IUCr Journals, http://journals.iucr.org/.
#
# The file may be used within the scientific community so long as
# proper attribution is given to the journal article from which the
# data were obtained.
#
data_2242211
loop_
_publ_author_name
'Larvor, Carla'
'St\"oger, Berthold'
_publ_section_title
;
 The phase transition of rubidium hydrogen carbonate, RbHCO~3~
;
_journal_coeditor_code           PK2601
_journal_issue                   7
_journal_name_full               'Acta Crystallographica Section E'
_journal_page_first              975
_journal_page_last               979
_journal_paper_doi               10.1107/S2056989017008271
_journal_volume                  73
_journal_year                    2017
_chemical_formula_iupac          'Rb H C O3'
_chemical_formula_moiety         'C H O3 Rb'
_chemical_formula_sum            'C H O3 Rb'
_chemical_formula_weight         146.5
_space_group_IT_number           12
_symmetry_cell_setting           monoclinic
_symmetry_space_group_name_Hall  '-C 2y'
_symmetry_space_group_name_H-M   'C 1 2/m 1'
_audit_creation_method           'Jana2006 Version : 26/04/2017'
_cell_angle_alpha                90
_cell_angle_beta                 104.321(5)
_cell_angle_gamma                90
_cell_formula_units_Z            4
_cell_length_a                   14.807(3)
_cell_length_b                   5.8216(12)
_cell_length_c                   4.0217(9)
_cell_measurement_reflns_used    1945
_cell_measurement_temperature    270
_cell_measurement_theta_max      32.57
_cell_measurement_theta_min      2.81
_cell_volume                     335.90(12)
_computing_cell_refinement
;
SAINT-Plus (Bruker, 2016)
;
_computing_data_collection
;
APEX3 (Bruker, 2016)
;
_computing_data_reduction
;
SAINT-Plus (Bruker, 2016)
;
_computing_molecular_graphics
;
ATOMS  (Dowty, 2006)
;
_computing_publication_material
;
publCIF (Westrip, 2010)
;
_computing_structure_refinement
;
Jana2006 (Pet\<r\'i\<cek <i>et al.</i>,  2014)
;
_diffrn_ambient_temperature      270
_diffrn_measured_fraction_theta_full 0.98
_diffrn_measured_fraction_theta_max 0.98
_diffrn_measurement_device       'four-circle diffractometer'
_diffrn_measurement_device_type  'Bruker KAPPA APEXII CCD'
_diffrn_measurement_method       '\w- and \f-scans'
_diffrn_radiation_source         'X-ray tube'
_diffrn_radiation_type           'Mo K\a'
_diffrn_radiation_wavelength     0.71073
_diffrn_reflns_av_R_equivalents  0.0505
_diffrn_reflns_limit_h_max       20
_diffrn_reflns_limit_h_min       -22
_diffrn_reflns_limit_k_max       8
_diffrn_reflns_limit_k_min       -8
_diffrn_reflns_limit_l_max       6
_diffrn_reflns_limit_l_min       -6
_diffrn_reflns_number            3067
_diffrn_reflns_theta_full        32.96
_diffrn_reflns_theta_max         32.97
_diffrn_reflns_theta_min         2.84
_exptl_absorpt_coefficient_mu    14.539
_exptl_absorpt_correction_T_max  0.27
_exptl_absorpt_correction_T_min  0.05
_exptl_absorpt_correction_type   multi-scan
_exptl_absorpt_process_details
;
(SADABS; Bruker, 2016)
;
_exptl_crystal_colour            colourless
_exptl_crystal_density_diffrn    2.8965
_exptl_crystal_description       rod
_exptl_crystal_F_000             272
_exptl_crystal_size_max          0.43
_exptl_crystal_size_mid          0.18
_exptl_crystal_size_min          0.09
_refine_diff_density_max         0.86
_refine_diff_density_min         -0.96
_refine_ls_extinction_method     none
_refine_ls_goodness_of_fit_ref   1.26
_refine_ls_hydrogen_treatment    mixed
_refine_ls_number_constraints    0
_refine_ls_number_parameters     32
_refine_ls_number_reflns         672
_refine_ls_number_restraints     1
_refine_ls_R_factor_all          0.0452
_refine_ls_R_factor_gt           0.0291
_refine_ls_shift/su_max          0.0106
_refine_ls_shift/su_mean         0.0013
_refine_ls_structure_factor_coef Fsqd
_refine_ls_weighting_details     w=1/(\s^2^(I)+0.0004I^2^)
_refine_ls_weighting_scheme      sigma
_refine_ls_wR_factor_gt          0.0608
_refine_ls_wR_factor_ref         0.0658
_reflns_number_gt                544
_reflns_number_total             672
_reflns_threshold_expression     I>3\s(I)
_cod_data_source_file            pk2601sup1.cif
_cod_data_source_block           HT_RbHCO3
_cod_original_cell_volume        335.91(12)
_cod_database_code               2242211
_cod_database_fobs_code          2242211
loop_
_space_group_symop_id
_space_group_symop_operation_xyz
1 x,y,z
2 -x,y,-z
3 -x,-y,-z
4 x,-y,z
5 x+1/2,y+1/2,z
6 -x+1/2,y+1/2,-z
7 -x+1/2,-y+1/2,-z
8 x+1/2,-y+1/2,z
loop_
_atom_site_type_symbol
_atom_site_label
_atom_site_fract_x
_atom_site_fract_y
_atom_site_fract_z
_atom_site_U_iso_or_equiv
_atom_site_adp_type
_atom_site_calc_flag
_atom_site_occupancy
Rb Rb 0.66119(3) 0 0.29537(9) 0.02714(13) Uani d 1
O O1 0.6878(2) 0.5 1.0996(8) 0.0324(10) Uani d 1
O O2 0.57663(15) 0.3079(3) 0.7353(5) 0.0304(7) Uani d 1
C C 0.6159(3) 0.5 0.8641(9) 0.0210(10) Uani d 1
H H 0.522(2) 0.328(12) 0.608(16) 0.04(2) Uiso d 0.5
loop_
_atom_site_aniso_label
_atom_site_aniso_U_11
_atom_site_aniso_U_22
_atom_site_aniso_U_33
_atom_site_aniso_U_12
_atom_site_aniso_U_13
_atom_site_aniso_U_23
_atom_site_aniso_type_symbol
Rb 0.0363(3) 0.02090(17) 0.0221(2) 0 0.00320(15) 0 Rb
O1 0.0244(16) 0.0332(14) 0.0343(16) 0 -0.0030(13) 0 O
O2 0.0332(13) 0.0173(8) 0.0342(11) 0.0018(7) -0.0040(9) -0.0016(7) O
C 0.0231(19) 0.0186(14) 0.0217(17) 0 0.0062(14) 0 C
loop_
_atom_type_symbol
_atom_type_scat_dispersion_real
_atom_type_scat_dispersion_imag
_atom_type_scat_source
C 0.0033 0.0016 'International Tables Vol C tables 4.2.6.8 and 6.1.1.1'
H 0.0000 0.0000 'International Tables Vol C tables 4.2.6.8 and 6.1.1.1'
O 0.0106 0.0060 'International Tables Vol C tables 4.2.6.8 and 6.1.1.1'
Rb -0.9393 2.9676 'International Tables Vol C tables 4.2.6.8 and 6.1.1.1'
loop_
_geom_angle_atom_site_label_1
_geom_angle_atom_site_label_2
_geom_angle_atom_site_label_3
_geom_angle_site_symmetry_1
_geom_angle_site_symmetry_3
_geom_angle
O1 Rb O2 6_647 1_554 138.83(5)
O1 Rb O2 6_647 . 81.45(7)
O1 Rb O2 6_647 4_554 138.83(5)
O1 Rb O2 6_647 4_555 81.45(7)
O2 Rb O2 1_554 . 85.75(6)
O2 Rb O2 1_554 4_554 76.10(5)
O2 Rb O2 1_554 4_555 131.47(6)
O2 Rb O2 . 4_554 131.47(6)
O2 Rb O2 . 4_555 73.35(6)
O2 Rb O2 4_554 4_555 85.75(6)
Rb O1 C 6_657 . 172.6(3)
Rb O2 Rb . 1_556 85.75(5)
Rb O2 C . . 122.4(2)
Rb O2 H . . 102(4)
Rb O2 C 1_556 . 98.99(16)
Rb O2 H 1_556 . 135(4)
C O2 H . . 113(5)
O1 C O2 . . 121.17(15)
O1 C O2 . 4_565 121.17(15)
O2 C O2 . 4_565 117.7(3)
loop_
_geom_bond_atom_site_label_1
_geom_bond_atom_site_label_2
_geom_bond_site_symmetry_2
_geom_bond_distance
Rb O1 6_647 2.869(3)
Rb O1 6_646 3.046(3)
Rb O1 1_544 3.0662(12)
Rb O1 1_554 3.0662(12)
Rb O2 1_554 2.908(2)
Rb O2 4_554 2.908(2)
Rb O2 . 3.001(2)
Rb O2 4_555 3.001(2)
Rb C 1_544 3.370(2)
Rb C 1_554 3.370(2)
O1 C . 1.237(4)
O2 C . 1.307(3)
O2 H . 0.85(4)
loop_
_geom_hbond_atom_site_label_D
_geom_hbond_atom_site_label_H
_geom_hbond_atom_site_label_A
_geom_hbond_site_symmetry_A
_geom_hbond_distance_DH
_geom_hbond_distance_HA
_geom_hbond_distance_DA
_geom_hbond_angle_DHA
_geom_hbond_publ_flag
O2 H O2 2_656 0.85(4) 1.75(4) 2.571(3) 162(6) yes
loop_
_refln_index_h
_refln_index_k
_refln_index_l
_refln_observed_status
_refln_F_squared_meas
_refln_F_squared_calc
2 0 0 o 1691.28 1656.24
4 0 0 o 10113.10 10963.60
6 0 0 o 4907.93 5001.47
8 0 0 o 2306.09 2281.79
10 0 0 o 1092.03 1235.91
12 0 0 o 2761.00 2931.23
14 0 0 < -23.85 0.11
16 0 0 o 272.39 302.54
18 0 0 o 165.35 166.24
20 0 0 < -6.71 5.92
1 1 0 o 562.13 574.64
3 1 0 o 7760.21 8064.04
5 1 0 o 1375.70 1499.56
7 1 0 o 5349.41 5357.25
9 1 0 o 4258.19 4463.80
11 1 0 < 11.37 9.34
13 1 0 o 1761.50 1797.19
15 1 0 o 977.07 1006.51
17 1 0 < -9.98 26.96
19 1 0 o 358.76 368.79
21 1 0 < 67.95 67.97
0 2 0 o 12117.10 13301.10
2 2 0 o 6883.60 6743.69
4 2 0 o 3925.03 4069.42
6 2 0 o 12230.80 12800.50
8 2 0 o 84.91 90.12
10 2 0 o 1196.42 1265.90
12 2 0 o 872.18 892.73
14 2 0 o 197.02 205.86
16 2 0 o 317.99 322.44
18 2 0 o 415.00 331.75
20 2 0 < 62.94 16.25
1 3 0 o 4055.58 4016.34
3 3 0 o 4196.77 4114.95
5 3 0 o 39.21 42.09
7 3 0 o 873.00 933.69
9 3 0 o 3790.01 3836.25
11 3 0 o 72.44 61.52
13 3 0 o 2228.33 2219.89
15 3 0 o 573.72 475.10
17 3 0 o 66.59 46.57
19 3 0 o 197.56 135.84
0 4 0 o 8876.25 9153.91
2 4 0 o 1385.26 1387.36
4 4 0 o 2528.88 2435.47
6 4 0 o 3949.02 3806.09
8 4 0 o 287.56 275.84
10 4 0 o 825.90 752.40
12 4 0 o 972.94 904.30
14 4 0 o 51.59 26.81
16 4 0 o 192.27 178.03
18 4 0 o 281.30 154.72
1 5 0 o 109.70 113.14
3 5 0 o 2509.82 2529.89
5 5 0 o 752.39 755.69
7 5 0 o 2031.70 1984.32
9 5 0 o 1412.46 1339.75
11 5 0 < 13.61 8.11
13 5 0 o 487.76 444.68
15 5 0 o 424.00 460.41
17 5 0 < 35.38 6.84
0 6 0 o 3919.41 4049.70
2 6 0 o 393.76 358.35
4 6 0 o 1125.42 1109.97
6 6 0 o 1243.72 1186.72
8 6 0 o 158.47 153.00
10 6 0 o 367.46 312.98
12 6 0 o 574.82 519.73
14 6 0 < 36.40 2.38
16 6 0 o 83.18 88.71
1 7 0 o 369.96 398.73
3 7 0 o 833.15 852.31
5 7 0 o 68.67 66.53
7 7 0 o 281.02 243.83
9 7 0 o 787.21 735.36
11 7 0 < 26.60 9.24
13 7 0 o 400.57 399.10
0 8 0 o 653.79 617.57
2 8 0 o 303.58 279.14
4 8 0 o 281.71 247.88
6 8 0 o 904.33 823.21
8 8 0 < 9.54 1.15
-22 0 1 < 27.06 12.26
-20 0 1 o 118.56 118.07
-18 0 1 o 428.91 397.58
-16 0 1 < 56.53 32.63
-14 0 1 o 937.58 755.28
-12 0 1 o 582.84 816.44
-10 0 1 < 26.46 67.51
-6 0 1 o 860.43 838.25
-4 0 1 o 17997.80 17993.30
-2 0 1 o 3307.61 3331.14
0 0 1 o 86.39 85.27
2 0 1 o 3806.42 3755.80
4 0 1 o 19659.00 19318.60
6 0 1 o 29.12 8.23
8 0 1 o 6891.10 6771.78
10 0 1 o 1936.52 2063.82
12 0 1 < 18.38 33.88
14 0 1 o 1078.30 1116.83
16 0 1 o 727.34 742.14
18 0 1 < 46.90 80.32
20 0 1 < 79.88 113.11
-21 1 1 o 119.65 108.96
-19 1 1 < 59.57 40.02
-17 1 1 o 808.98 734.08
-15 1 1 o 535.53 604.10
-13 1 1 o 477.02 427.74
-11 1 1 o 3828.43 3950.73
-9 1 1 o 1504.24 1482.02
-7 1 1 o 578.73 714.89
-5 1 1 o 10121.50 9795.78
-3 1 1 o 9597.17 9414.97
-1 1 1 o 4929.94 4754.03
1 1 1 o 15905.40 15993.70
3 1 1 o 173.35 161.17
5 1 1 o 3271.77 3350.33
7 1 1 o 2640.77 2639.99
9 1 1 < 7.28 10.28
11 1 1 o 1725.92 1769.76
13 1 1 o 486.28 433.95
15 1 1 o 75.77 101.01
17 1 1 o 354.11 329.00
19 1 1 o 149.85 110.76
-20 2 1 o 131.49 71.84
-18 2 1 o 168.96 179.52
-16 2 1 < 41.05 36.59
-14 2 1 o 1124.74 1121.40
-12 2 1 o 1204.02 1212.88
-10 2 1 o 1260.88 1274.94
-8 2 1 o 3126.45 3312.23
-6 2 1 o 270.08 285.73
-4 2 1 o 2505.45 2532.25
-2 2 1 o 13565.90 13280.20
0 2 1 o 14.87 12.73
2 2 1 o 10694.40 10236.90
4 2 1 o 4051.61 4132.51
6 2 1 o 312.03 319.69
8 2 1 o 2815.50 2792.57
10 2 1 o 4519.03 4513.92
12 2 1 o 48.47 38.29
14 2 1 o 1314.14 1306.32
16 2 1 o 228.89 203.75
18 2 1 < -1.94 5.14
20 2 1 < 49.65 86.58
-21 3 1 < 103.23 130.64
-19 3 1 < -3.35 21.95
-17 3 1 o 761.75 812.70
-15 3 1 o 173.23 181.39
-13 3 1 o 244.99 252.27
-11 3 1 o 1529.38 1578.96
-9 3 1 o 2285.66 2391.86
-7 3 1 o 851.69 899.48
-5 3 1 o 8591.78 8894.88
-3 3 1 o 714.99 747.61
-1 3 1 o 935.64 965.29
1 3 1 o 6478.98 6212.56
3 3 1 o 1821.89 1721.49
5 3 1 o 4706.72 4664.27
7 3 1 o 2196.38 2176.97
9 3 1 o 397.02 355.01
11 3 1 o 621.48 551.09
13 3 1 o 444.83 360.85
15 3 1 < 2.35 4.08
17 3 1 o 527.91 462.25
19 3 1 < 62.60 57.21
-20 4 1 < 30.37 50.80
-18 4 1 o 140.15 163.02
-16 4 1 < -11.57 0.79
-14 4 1 o 558.14 577.42
-12 4 1 o 551.91 563.41
-10 4 1 o 280.66 284.45
-8 4 1 o 2790.96 2804.98
-6 4 1 o 350.18 355.22
-4 4 1 o 2478.07 2601.66
-2 4 1 o 3679.12 3774.33
0 4 1 o 64.88 63.73
2 4 1 o 2766.99 2706.89
4 4 1 o 3885.08 3962.12
6 4 1 o 63.90 57.43
8 4 1 o 2199.61 2099.76
10 4 1 o 1762.92 1682.71
12 4 1 < 4.81 0.88
14 4 1 o 790.74 715.58
16 4 1 o 298.22 231.91
18 4 1 < 33.27 20.92
-17 5 1 o 191.21 213.01
-15 5 1 o 299.97 302.27
-13 5 1 o 160.06 148.17
-11 5 1 o 1554.88 1532.35
-9 5 1 o 255.51 227.42
-7 5 1 o 200.07 204.15
-5 5 1 o 1960.76 2049.99
-3 5 1 o 2099.69 2178.56
-1 5 1 o 1647.04 1689.07
1 5 1 o 4097.17 4074.48
3 5 1 < 17.16 7.98
5 5 1 o 925.06 857.73
7 5 1 o 1058.23 954.31
9 5 1 < -1.00 11.09
11 5 1 o 976.57 906.54
13 5 1 o 172.84 165.02
15 5 1 < 57.99 64.55
-16 6 1 < 2.35 2.84
-14 6 1 o 227.89 223.05
-12 6 1 o 286.58 254.32
-10 6 1 o 90.34 70.99
-8 6 1 o 1543.65 1502.93
-6 6 1 o 224.42 184.80
-4 6 1 o 1256.55 1298.12
-2 6 1 o 1162.95 1196.80
0 6 1 o 72.46 55.39
2 6 1 o 854.12 788.48
4 6 1 o 2052.92 1966.59
6 6 1 < 29.79 16.03
8 6 1 o 1121.37 1030.10
10 6 1 o 650.67 568.44
12 6 1 < 16.58 0.67
14 6 1 o 330.09 294.92
-13 7 1 o 68.27 58.17
-11 7 1 o 347.67 310.11
-9 7 1 o 339.39 308.56
-7 7 1 o 138.41 135.39
-5 7 1 o 1225.26 1221.31
-3 7 1 o 190.64 198.00
-1 7 1 o 349.44 332.99
1 7 1 o 1108.58 1144.49
3 7 1 o 122.49 125.68
5 7 1 o 841.01 780.38
7 7 1 o 413.34 432.70
9 7 1 < 46.00 40.42
11 7 1 o 158.03 144.84
-8 8 1 o 296.60 295.60
-6 8 1 o 65.04 48.11
-4 8 1 o 176.43 142.73
-2 8 1 o 886.95 830.93
0 8 1 < 36.78 11.62
2 8 1 o 542.35 539.64
4 8 1 o 227.09 252.26
6 8 1 < 43.30 31.65
8 8 1 o 275.59 188.33
-22 0 2 o 248.73 152.38
-20 0 2 < 107.42 122.29
-18 0 2 < 44.10 23.82
-16 0 2 o 1157.05 992.34
-10 0 2 o 2140.34 1947.43
-8 0 2 o 106.12 102.55
-6 0 2 o 181.68 169.75
-4 0 2 o 7488.71 7213.22
-2 0 2 o 738.90 712.00
0 0 2 o 11561.90 11116.60
2 0 2 o 2552.69 2515.15
4 0 2 o 791.54 665.87
6 0 2 o 3078.26 3102.86
8 0 2 o 2470.25 2444.19
10 0 2 o 568.34 562.01
12 0 2 o 2111.99 2098.50
14 0 2 < 56.02 80.96
16 0 2 < -5.81 47.03
18 0 2 < 75.37 191.31
-21 1 2 < 34.08 11.56
-19 1 2 o 201.83 182.53
-17 1 2 o 102.53 92.51
-15 1 2 o 225.88 204.60
-11 1 2 o 593.12 608.75
-9 1 2 o 2430.44 2447.24
-7 1 2 o 8385.64 8614.42
-5 1 2 o 31.87 28.26
-3 1 2 o 7526.95 7240.18
-1 1 2 o 7016.86 6616.00
1 1 2 o 326.55 276.24
3 1 2 o 4620.63 4469.40
5 1 2 o 4496.23 4327.46
7 1 2 o 21.11 12.88
9 1 2 o 1644.24 1585.42
11 1 2 o 786.87 797.88
13 1 2 < 7.26 44.61
15 1 2 o 475.02 580.17
17 1 2 < -26.20 31.57
-20 2 2 o 193.55 215.12
-18 2 2 o 99.88 101.16
-16 2 2 o 845.00 827.41
-14 2 2 o 163.74 169.73
-12 2 2 o 228.35 210.13
-10 2 2 o 2015.08 2107.58
-8 2 2 o 838.28 810.69
-6 2 2 o 2534.05 2483.09
-4 2 2 o 2840.35 2840.14
-2 2 2 o 28.84 22.54
0 2 2 o 2368.00 2265.67
2 2 2 o 5882.30 5759.73
4 2 2 o 280.22 250.27
6 2 2 o 6058.87 6075.67
8 2 2 o 592.38 574.96
10 2 2 o 355.79 402.16
12 2 2 o 785.77 893.79
14 2 2 o 360.76 392.90
16 2 2 < 30.67 88.27
18 2 2 o 307.26 284.27
-21 3 2 < -14.63 20.85
-19 3 2 < 64.88 63.94
-17 3 2 o 119.65 121.36
-15 3 2 o 89.30 84.88
-13 3 2 o 1723.53 1685.98
-11 3 2 o 157.25 164.49
-9 3 2 o 1676.91 1823.29
-7 3 2 o 3085.38 3068.33
-5 3 2 o 604.92 617.93
-3 3 2 o 4471.62 4554.43
-1 3 2 o 6869.75 6874.34
1 3 2 o 202.69 167.17
3 3 2 o 2293.10 2216.83
5 3 2 o 1664.76 1682.86
7 3 2 o 187.22 180.19
9 3 2 o 1641.59 1698.16
11 3 2 o 809.16 820.98
13 3 2 o 205.38 212.11
15 3 2 o 245.85 252.35
17 3 2 < -66.75 16.69
-20 4 2 < 60.27 96.55
-18 4 2 < 11.77 37.26
-16 4 2 o 546.29 502.22
-14 4 2 o 183.19 190.59
-12 4 2 o 324.40 309.60
-10 4 2 o 1154.73 1155.09
-8 4 2 o 171.70 191.84
-6 4 2 o 638.32 688.59
-4 4 2 o 2269.87 2313.06
-2 4 2 o 102.25 114.88
0 4 2 o 2600.28 2595.76
2 4 2 o 2216.73 2239.11
4 4 2 o 175.53 161.15
6 4 2 o 2405.45 2383.03
8 4 2 o 721.92 715.59
10 4 2 o 244.32 255.84
12 4 2 o 794.95 762.84
14 4 2 o 104.83 118.78
16 4 2 < -2.75 35.73
-17 5 2 < 14.37 30.07
-15 5 2 o 77.91 90.52
-13 5 2 o 406.46 410.66
-11 5 2 o 340.82 331.59
-9 5 2 o 663.23 688.25
-7 5 2 o 2835.54 3053.70
-5 5 2 < -5.37 4.87
-3 5 2 o 1822.71 1906.73
-1 5 2 o 1306.93 1348.64
1 5 2 o 156.35 165.85
3 5 2 o 1629.22 1598.14
5 5 2 o 1598.03 1630.18
7 5 2 o 72.02 75.19
9 5 2 o 495.94 506.53
11 5 2 o 270.60 264.15
13 5 2 < -37.12 3.14
-16 6 2 o 238.51 253.23
-14 6 2 o 110.22 100.88
-12 6 2 o 204.68 212.21
-10 6 2 o 471.97 455.41
-8 6 2 o 45.10 54.80
-6 6 2 o 165.07 201.82
-4 6 2 o 1137.51 1230.21
-2 6 2 o 53.58 75.51
0 6 2 o 1380.75 1416.66
2 6 2 o 824.33 836.27
4 6 2 o 51.23 66.29
6 6 2 o 902.45 851.92
8 6 2 o 414.08 428.50
10 6 2 o 116.84 114.45
12 6 2 o 430.96 418.15
-13 7 2 o 340.84 323.46
-11 7 2 o 60.19 59.50
-9 7 2 o 298.72 325.81
-7 7 2 o 685.86 659.62
-5 7 2 o 83.79 54.22
-3 7 2 o 754.06 724.13
-1 7 2 o 977.89 946.79
1 7 2 < 14.85 12.10
3 7 2 o 496.04 458.52
5 7 2 o 385.76 348.20
7 7 2 < 32.47 13.71
9 7 2 o 336.11 345.04
-8 8 2 o 85.61 65.17
-6 8 2 o 241.98 245.37
-4 8 2 o 271.42 262.37
-2 8 2 < 31.27 4.82
0 8 2 o 174.57 182.22
2 8 2 o 567.78 556.21
4 8 2 < 22.81 10.43
-20 0 3 < 74.37 89.56
-14 0 3 o 257.75 232.07
-12 0 3 o 1893.03 1603.12
-10 0 3 o 699.70 636.24
-8 0 3 o 3186.56 3087.48
-6 0 3 o 3819.31 3729.19
-4 0 3 o 169.66 170.68
-2 0 3 o 1953.24 1863.73
0 0 3 o 2288.85 2258.36
2 0 3 o 34.08 32.80
4 0 3 o 3394.55 3413.68
6 0 3 o 370.18 317.30
8 0 3 o 447.76 451.60
10 0 3 o 648.64 582.49
12 0 3 o 255.95 249.56
14 0 3 o 168.15 235.65
16 0 3 o 275.19 470.20
-21 1 3 < 109.62 102.69
-19 1 3 < 29.06 76.34
-13 1 3 < 6.01 5.69
-11 1 3 o 1247.05 1201.56
-9 1 3 o 1066.59 1047.09
-7 1 3 < 11.02 6.55
-5 1 3 o 2600.92 2593.20
-3 1 3 o 3499.88 3435.00
-1 1 3 o 203.53 213.72
1 1 3 o 5268.91 5054.79
3 1 3 o 2111.87 2047.69
5 1 3 o 348.27 312.05
7 1 3 o 2812.63 2786.07
9 1 3 o 623.49 599.34
11 1 3 o 340.40 334.18
13 1 3 o 386.08 432.40
15 1 3 < -21.31 34.39
-20 2 3 < 60.84 51.35
-18 2 3 o 209.24 197.33
-16 2 3 < 71.16 126.58
-14 2 3 o 340.02 379.80
-12 2 3 o 1641.09 1568.21
-10 2 3 o 79.82 75.02
-8 2 3 o 1242.88 1247.31
-6 2 3 o 3069.72 3102.53
-4 2 3 o 62.18 59.38
-2 2 3 o 4228.94 4125.42
0 2 3 o 1364.75 1310.83
2 2 3 o 462.85 425.35
4 2 3 o 1048.03 1034.87
6 2 3 o 689.03 675.93
8 2 3 o 168.84 153.75
10 2 3 o 1328.47 1281.66
12 2 3 < -4.17 47.04
14 2 3 < 64.66 247.98
-19 3 3 < 48.91 54.82
-17 3 3 o 151.02 168.15
-15 3 3 o 321.82 337.94
-13 3 3 < 23.41 13.29
-11 3 3 o 559.08 576.58
-9 3 3 o 1459.42 1436.29
-7 3 3 o 74.87 61.64
-5 3 3 o 2169.32 2267.41
-3 3 3 o 1115.80 1124.63
-1 3 3 < 2.49 1.65
1 3 3 o 3102.60 3088.66
3 3 3 o 2531.75 2553.48
5 3 3 o 669.13 665.26
7 3 3 o 1898.66 1940.01
9 3 3 o 148.77 162.96
11 3 3 < 4.41 66.93
13 3 3 o 242.92 388.22
-18 4 3 o 96.01 146.24
-16 4 3 < 26.72 39.60
-14 4 3 o 170.42 173.49
-12 4 3 o 824.91 853.59
-10 4 3 o 121.95 140.80
-8 4 3 o 1057.37 1082.26
-6 4 3 o 1756.64 1837.90
-4 4 3 < -2.97 6.94
-2 4 3 o 1628.54 1705.48
0 4 3 o 925.06 914.40
2 4 3 o 108.42 107.38
4 4 3 o 1076.73 1132.87
6 4 3 o 281.51 297.03
8 4 3 o 135.20 148.92
10 4 3 o 541.44 536.34
12 4 3 < 59.67 78.29
-17 5 3 < 21.15 40.36
-15 5 3 o 302.31 354.55
-13 5 3 < 2.61 1.61
-11 5 3 o 509.37 545.40
-9 5 3 o 265.43 285.05
-7 5 3 < -5.61 1.52
-5 5 3 o 736.08 741.13
-3 5 3 o 1425.05 1535.65
-1 5 3 o 94.77 110.20
1 5 3 o 1716.32 1781.82
3 5 3 o 475.48 500.97
5 5 3 < 36.30 50.85
7 5 3 o 1038.01 1051.23
9 5 3 o 235.86 307.18
11 5 3 o 166.95 223.79
-14 6 3 < 60.74 56.35
-12 6 3 o 352.90 391.19
-10 6 3 o 97.98 93.03
-8 6 3 o 564.88 607.55
-6 6 3 o 728.74 775.74
-4 6 3 < -6.37 19.07
-2 6 3 o 606.41 628.59
0 6 3 o 442.50 463.22
2 6 3 < 26.88 32.10
4 6 3 o 624.53 662.93
6 6 3 o 84.49 109.28
8 6 3 o 68.19 81.90
-11 7 3 o 176.57 131.73
-9 7 3 o 262.00 257.94
-7 7 3 < -21.77 3.48
-5 7 3 o 371.79 404.99
-3 7 3 o 213.49 281.38
-1 7 3 < -11.23 0.97
1 7 3 o 540.00 588.31
3 7 3 o 512.72 457.21
5 7 3 o 108.36 114.68
-16 0 4 o 487.24 351.34
-14 0 4 o 763.02 629.79
-12 0 4 o 84.19 95.44
-10 0 4 o 1180.50 1085.04
-8 0 4 o 706.89 701.07
-6 0 4 < 7.42 5.37
-4 0 4 o 2402.30 2399.18
-2 0 4 o 1427.33 1371.05
0 0 4 o 475.42 397.52
2 0 4 o 1464.21 1419.56
4 0 4 o 589.95 569.35
6 0 4 o 165.95 171.90
8 0 4 o 1175.23 1184.16
10 0 4 < -12.03 8.00
12 0 4 o 227.09 282.94
-15 1 4 < 1.70 13.76
-13 1 4 o 343.12 240.82
-11 1 4 o 865.74 770.64
-9 1 4 < 12.73 0.55
-7 1 4 o 1609.82 1609.63
-5 1 4 o 784.26 787.49
-3 1 4 o 385.08 379.07
-1 1 4 o 2112.09 2033.67
1 1 4 o 429.77 408.17
3 1 4 o 780.61 752.43
5 1 4 o 1408.99 1324.41
7 1 4 o 86.31 65.74
9 1 4 o 272.83 262.38
11 1 4 o 414.08 510.99
-18 2 4 < -21.85 2.40
-16 2 4 o 459.58 274.26
-14 2 4 o 430.42 374.65
-12 2 4 < 3.71 3.74
-10 2 4 o 1211.37 1164.54
-8 2 4 o 854.42 855.02
-6 2 4 o 199.72 192.32
-4 2 4 o 1320.15 1300.14
-2 2 4 o 949.51 933.15
0 2 4 < 36.08 33.50
2 2 4 o 2191.29 2106.45
4 2 4 o 512.86 483.84
6 2 4 o 493.14 474.30
8 2 4 o 520.82 492.21
10 2 4 < 1.60 23.63
12 2 4 < -25.94 117.00
-17 3 4 < 87.19 139.18
-15 3 4 < 66.15 14.90
-13 3 4 o 357.65 290.03
-11 3 4 o 380.14 380.88
-9 3 4 < 9.08 0.44
-7 3 4 o 880.02 812.98
-5 3 4 o 1037.61 1011.77
-3 3 4 o 366.90 353.73
-1 3 4 o 1922.79 1938.12
1 3 4 o 70.60 77.50
3 3 4 o 380.51 361.99
5 3 4 o 717.25 744.48
7 3 4 o 170.48 199.10
9 3 4 o 269.92 326.50
11 3 4 o 289.02 420.18
-16 4 4 o 141.29 177.02
-14 4 4 o 212.75 292.20
-12 4 4 < 22.05 18.30
-10 4 4 o 620.26 652.11
-8 4 4 o 419.03 414.10
-6 4 4 < 24.45 39.47
-4 4 4 o 949.71 956.86
-2 4 4 o 592.20 638.30
0 4 4 o 75.43 91.70
2 4 4 o 1011.99 1024.32
4 4 4 o 278.40 293.79
6 4 4 o 136.16 187.40
8 4 4 o 397.64 468.31
-13 5 4 < 28.46 68.23
-11 5 4 o 322.14 363.91
-9 5 4 < -0.10 0.35
-7 5 4 o 714.49 760.72
-5 5 4 o 207.04 235.64
-3 5 4 o 92.65 128.25
-1 5 4 o 651.69 667.81
1 5 4 o 221.23 256.01
3 5 4 o 281.30 332.28
5 5 4 o 461.30 569.20
7 5 4 < -40.41 6.47
-10 6 4 o 296.64 264.81
-8 6 4 o 129.19 174.70
-6 6 4 < -21.17 6.95
-4 6 4 o 478.46 498.20
-2 6 4 o 216.94 286.59
0 6 4 < 36.88 68.30
2 6 4 o 367.54 399.64
4 6 4 < 102.43 144.92
-16 0 5 < 34.28 37.27
-14 0 5 < 0.60 2.63
-12 0 5 o 347.33 289.35
-10 0 5 o 352.74 346.57
-8 0 5 o 249.33 173.97
-6 0 5 o 987.90 1036.59
-4 0 5 o 217.36 201.46
-2 0 5 o 345.93 302.24
0 0 5 o 1348.36 1289.76
2 0 5 o 117.64 102.24
4 0 5 o 620.72 566.51
6 0 5 o 289.52 317.22
8 0 5 < 4.71 9.01
-17 1 5 < 95.01 0.84
-15 1 5 o 348.64 277.44
-13 1 5 o 267.37 229.46
-11 1 5 o 69.96 62.28
-9 1 5 o 610.90 548.48
-7 1 5 o 215.66 219.88
-5 1 5 o 155.53 137.76
-3 1 5 o 768.13 733.50
-1 1 5 o 123.51 117.23
1 1 5 o 240.65 237.30
3 1 5 o 620.36 569.41
5 1 5 < 50.31 38.83
7 1 5 o 334.42 348.36
-16 2 5 o 148.51 63.38
-14 2 5 < -0.90 15.53
-12 2 5 o 299.35 255.06
-10 2 5 o 198.02 171.95
-8 2 5 < 36.08 47.02
-6 2 5 o 980.18 965.38
-4 2 5 o 300.65 325.94
-2 2 5 o 598.87 552.58
0 2 5 o 873.40 891.24
2 2 5 < 37.08 30.30
4 2 5 o 220.93 215.85
6 2 5 o 456.58 437.53
-15 3 5 o 238.11 156.43
-13 3 5 o 211.25 198.57
-11 3 5 < 44.80 30.62
-9 3 5 o 550.97 555.37
-7 3 5 < 82.38 98.01
-5 3 5 o 104.63 124.15
-3 3 5 o 380.81 352.52
-1 3 5 o 185.85 180.75
1 3 5 o 162.10 172.81
3 3 5 o 550.97 610.17
5 3 5 < -51.72 1.57
-12 4 5 o 179.28 152.10
-10 4 5 o 167.85 151.58
-8 4 5 < 55.02 51.99
-6 4 5 o 516.99 596.16
-4 4 5 o 168.15 150.09
-2 4 5 o 185.99 247.95
0 4 5 o 590.25 613.63
2 4 5 < 27.26 34.39
-7 5 5 o 124.86 100.96
-5 5 5 < 6.61 48.76
-3 5 5 o 330.92 359.40
-1 5 5 < -63.54 29.10
-10 0 6 < 48.91 81.70
-8 0 6 o 282.21 249.87
-6 0 6 < 44.50 25.98
-4 0 6 o 203.23 242.07
-2 0 6 o 245.23 270.43
-9 1 6 < 65.75 78.54
-7 1 6 < 76.97 93.71
-5 1 6 o 341.62 389.52
-3 1 6 < -6.01 51.98
-6 2 6 < -47.10 3.09
loop_
_cod_related_entry_id
_cod_related_entry_database
_cod_related_entry_code
1 PubChem 139088397
