#------------------------------------------------------------------------------
#$Date: 2017-07-25 12:44:45 +0300 (Tue, 25 Jul 2017) $
#$Revision: 199177 $
#$URL: file:///home/coder/svn-repositories/cod/cif/2/24/22/2242212.cif $
#------------------------------------------------------------------------------
#
# This file is available in the Crystallography Open Database (COD),
# http://www.crystallography.net/. The original data for this entry
# were provided by IUCr Journals, http://journals.iucr.org/.
#
# The file may be used within the scientific community so long as
# proper attribution is given to the journal article from which the
# data were obtained.
#
data_2242212
loop_
_publ_author_name
'Larvor, Carla'
'St\"oger, Berthold'
_publ_section_title
;
 The phase transition of rubidium hydrogen carbonate, RbHCO~3~
;
_journal_coeditor_code           PK2601
_journal_issue                   7
_journal_name_full               'Acta Crystallographica Section E'
_journal_page_first              975
_journal_page_last               979
_journal_paper_doi               10.1107/S2056989017008271
_journal_volume                  73
_journal_year                    2017
_chemical_formula_iupac          'Rb H C O3'
_chemical_formula_moiety         'C H O3 Rb'
_chemical_formula_sum            'C H O3 Rb'
_chemical_formula_weight         146.5
_space_group_IT_number           2
_symmetry_cell_setting           triclinic
_symmetry_space_group_name_Hall  '-P 1 (1/2*x+1/2*y,1/2*x-1/2*y,-z)'
_symmetry_space_group_name_H-M   'C -1'
_audit_creation_method           'Jana2006 Version : 26/04/2017'
_cell_angle_alpha                89.343(4)
_cell_angle_beta                 104.096(4)
_cell_angle_gamma                92.748(9)
_cell_formula_units_Z            4
_cell_length_a                   14.945(3)
_cell_length_b                   5.8212(9)
_cell_length_c                   3.9699(6)
_cell_measurement_reflns_used    1945
_cell_measurement_temperature    200
_cell_measurement_theta_max      32.57
_cell_measurement_theta_min      2.81
_cell_volume                     334.59(10)
_computing_cell_refinement
;
SAINT-Plus (Bruker, 2016)
;
_computing_data_collection
;
APEX3 (Bruker, 2016)
;
_computing_data_reduction
;
SAINT-Plus (Bruker, 2016)
;
_computing_molecular_graphics
;
ATOMS (Dowty, 2006)
;
_computing_publication_material
;
publCIF (Westrip, 2010)
;
_computing_structure_refinement
;
Jana2006 (Pet\<r\'i\<cek <i>et al.</i>,  2014)
;
_computing_structure_solution
;
SHELXT (Sheldrick, 2015)
;
_diffrn_ambient_temperature      200
_diffrn_measured_fraction_theta_full 1
_diffrn_measured_fraction_theta_max 1
_diffrn_measurement_device       'four-circle diffractometer'
_diffrn_measurement_device_type  'Bruker KAPPA APEXII CCD'
_diffrn_measurement_method       '\w- and \f-scans'
_diffrn_radiation_source         'X-ray tube'
_diffrn_radiation_type           'Mo K\a'
_diffrn_radiation_wavelength     0.71073
_diffrn_reflns_av_R_equivalents  0.0594
_diffrn_reflns_limit_h_max       22
_diffrn_reflns_limit_h_min       -6
_diffrn_reflns_limit_k_max       8
_diffrn_reflns_limit_k_min       -8
_diffrn_reflns_limit_l_max       5
_diffrn_reflns_limit_l_min       -6
_diffrn_reflns_number            8005
_diffrn_reflns_theta_full        32.69
_diffrn_reflns_theta_max         32.69
_diffrn_reflns_theta_min         2.81
_exptl_absorpt_coefficient_mu    14.597
_exptl_absorpt_correction_T_max  0.27
_exptl_absorpt_correction_T_min  0.05
_exptl_absorpt_correction_type   multi-scan
_exptl_absorpt_process_details
;
(TWINABS; Bruker, 2016)
;
_exptl_crystal_colour            colourless
_exptl_crystal_density_diffrn    2.9079
_exptl_crystal_description       rod
_exptl_crystal_F_000             272
_exptl_crystal_size_max          0.43
_exptl_crystal_size_mid          0.18
_exptl_crystal_size_min          0.09
_refine_diff_density_max         1.88
_refine_diff_density_min         -1.81
_refine_ls_extinction_method     none
_refine_ls_goodness_of_fit_ref   1.50
_refine_ls_hydrogen_treatment    mixed
_refine_ls_number_constraints    0
_refine_ls_number_parameters     50
_refine_ls_number_reflns         1215
_refine_ls_number_restraints     1
_refine_ls_R_factor_all          0.0466
_refine_ls_R_factor_gt           0.0375
_refine_ls_shift/su_max          0.0181
_refine_ls_shift/su_mean         0.0010
_refine_ls_structure_factor_coef Fsqd
_refine_ls_weighting_details     w=1/(\s^2^(I)+0.0004I^2^)
_refine_ls_weighting_scheme      sigma
_refine_ls_wR_factor_gt          0.0733
_refine_ls_wR_factor_ref         0.0750
_reflns_number_gt                1029
_reflns_number_total             1215
_reflns_threshold_expression     I>3\s(I)
_cod_data_source_file            pk2601sup1.cif
_cod_data_source_block           LT_RbHCO3
_cod_original_cell_volume        334.59(9)
_cod_original_sg_symbol_Hall     '-C 1'
_cod_database_code               2242212
loop_
_space_group_symop_id
_space_group_symop_operation_xyz
1 x,y,z
2 -x,-y,-z
3 x+1/2,y+1/2,z
4 -x+1/2,-y+1/2,-z
loop_
_atom_site_type_symbol
_atom_site_label
_atom_site_fract_x
_atom_site_fract_y
_atom_site_fract_z
_atom_site_U_iso_or_equiv
_atom_site_adp_type
_atom_site_calc_flag
_atom_site_occupancy
Rb Rb 0.66221(2) -0.00995(4) 0.29542(8) 0.01812(10) Uani d 1
O O1 0.68811(18) 0.4885(4) 1.0957(7) 0.0232(8) Uani d 1
O O2 0.57544(19) 0.2938(4) 0.7298(7) 0.0218(8) Uani d 1
O O3 0.57832(19) 0.6790(4) 0.7345(6) 0.0219(8) Uani d 1
C C 0.6160(2) 0.4961(5) 0.8620(8) 0.0153(9) Uani d 1
H H 0.529(2) 0.326(7) 0.570(10) 0.037(13) Uiso d 1
loop_
_atom_site_aniso_label
_atom_site_aniso_U_11
_atom_site_aniso_U_22
_atom_site_aniso_U_33
_atom_site_aniso_U_12
_atom_site_aniso_U_13
_atom_site_aniso_U_23
_atom_site_aniso_type_symbol
Rb 0.02362(19) 0.01426(16) 0.01495(15) 0.00035(9) 0.00184(11) 0.00014(9) Rb
O1 0.0190(14) 0.0226(11) 0.0236(13) 0.0006(8) -0.0032(10) 0.0001(8) O
O2 0.0227(14) 0.0118(10) 0.0266(13) 0.0014(8) -0.0022(11) -0.0019(8) O
O3 0.0256(14) 0.0128(10) 0.0223(12) 0.0003(8) -0.0033(10) 0.0007(7) O
C 0.0155(16) 0.0151(13) 0.0155(14) -0.0005(10) 0.0047(12) -0.0003(9) C
loop_
_atom_type_symbol
_atom_type_scat_dispersion_real
_atom_type_scat_dispersion_imag
_atom_type_scat_source
C 0.0033 0.0016 'International Tables Vol C tables 4.2.6.8 and 6.1.1.1'
H 0.0000 0.0000 'International Tables Vol C tables 4.2.6.8 and 6.1.1.1'
O 0.0106 0.0060 'International Tables Vol C tables 4.2.6.8 and 6.1.1.1'
Rb -0.9393 2.9676 'International Tables Vol C tables 4.2.6.8 and 6.1.1.1'
loop_
_geom_angle_atom_site_label_1
_geom_angle_atom_site_label_2
_geom_angle_atom_site_label_3
_geom_angle_site_symmetry_1
_geom_angle_site_symmetry_3
_geom_angle
O1 Rb O1 1_554 4_656 73.01(7)
O1 Rb O1 1_554 4_657 94.75(6)
O1 Rb O2 1_554 1_554 43.56(6)
O1 Rb O2 1_554 . 70.67(7)
O1 Rb O3 1_554 1_544 116.17(7)
O1 Rb O3 1_554 1_545 144.31(8)
O1 Rb O1 4_656 4_657 84.89(8)
O1 Rb O2 4_656 1_554 81.38(7)
O1 Rb O2 4_656 . 140.08(6)
O1 Rb O3 4_656 1_544 80.76(7)
O1 Rb O3 4_656 1_545 141.28(7)
O1 Rb O2 4_657 1_554 138.29(6)
O1 Rb O2 4_657 . 82.17(7)
O1 Rb O3 4_657 1_544 139.80(7)
O1 Rb O3 4_657 1_545 82.33(7)
O2 Rb O2 1_554 . 83.64(7)
O2 Rb O3 1_554 1_544 76.08(6)
O2 Rb O3 1_554 1_545 130.12(8)
O2 Rb O3 . 1_544 130.57(7)
O2 Rb O3 . 1_545 73.70(7)
O3 Rb O3 1_544 1_545 85.85(7)
Rb O1 Rb 1_556 4_656 106.99(8)
Rb O1 Rb 1_556 4_657 85.25(6)
Rb O1 C 1_556 . 96.77(18)
Rb O1 Rb 4_656 4_657 84.89(7)
Rb O1 C 4_656 . 103.4(2)
Rb O1 C 4_657 . 170.4(3)
Rb O2 Rb . 1_556 83.64(6)
Rb O2 C . . 122.1(2)
Rb O2 H . . 97(3)
Rb O2 C 1_556 . 98.99(17)
Rb O2 H 1_556 . 149(3)
C O2 H . . 107(3)
Rb O3 Rb 1_565 1_566 85.85(6)
Rb O3 C 1_565 . 121.9(2)
Rb O3 C 1_566 . 98.73(18)
O1 C O2 . . 117.2(3)
O1 C O3 . . 125.2(3)
O2 C O3 . . 117.6(3)
loop_
_geom_bond_atom_site_label_1
_geom_bond_atom_site_label_2
_geom_bond_site_symmetry_2
_geom_bond_distance
Rb O1 1_554 3.031(2)
Rb O1 4_656 3.015(3)
Rb O1 4_657 2.865(3)
Rb O1 1_544 3.101(2)
Rb O2 1_554 2.926(2)
Rb O2 . 3.027(3)
Rb O3 1_544 2.885(2)
Rb O3 1_545 2.944(3)
Rb C 1_544 3.324(3)
Rb C 1_554 3.408(3)
O1 C . 1.241(4)
O2 C . 1.349(4)
O2 H . 0.85(3)
O3 C . 1.270(4)
loop_
_geom_hbond_atom_site_label_D
_geom_hbond_atom_site_label_H
_geom_hbond_atom_site_label_A
_geom_hbond_site_symmetry_A
_geom_hbond_distance_DH
_geom_hbond_distance_HA
_geom_hbond_distance_DA
_geom_hbond_angle_DHA
_geom_hbond_publ_flag
O2 H O3 2_666 0.85(3) 1.75(3) 2.582(3) 165(4) yes
loop_
_refln_index_h
_refln_index_k
_refln_index_l
_refln_observed_status
_refln_F_squared_meas
_refln_F_squared_calc
2 0 0 o 2007.06 1837.27
4 0 0 o 11774.60 10966.60
6 0 0 o 5711.52 5551.02
8 0 0 o 3048.35 3086.28
10 0 0 o 1307.58 1409.70
12 0 0 o 4337.66 4386.94
14 0 0 < 11.69 15.90
16 0 0 o 573.52 563.99
18 0 0 o 489.70 488.31
20 0 0 < 36.06 32.19
-21 1 0 o 314.77 281.46
-19 1 0 o 780.85 805.10
-17 1 0 < 0.00 0.98
-15 1 0 o 2125.71 2115.86
-13 1 0 o 2257.03 2146.52
-11 1 0 < 42.88 33.27
-9 1 0 o 6243.12 6087.22
-7 1 0 o 6123.74 5634.31
-5 1 0 o 2770.36 2831.40
-3 1 0 o 7959.28 8061.94
-1 1 0 o 366.18 393.08
1 1 0 o 675.60 757.43
3 1 0 o 8070.38 8578.84
5 1 0 o 1062.98 1152.60
7 1 0 o 5447.42 5646.36
9 1 0 o 5614.06 5467.86
11 1 0 < 6.58 2.58
13 1 0 o 2712.14 2728.76
15 1 0 o 1871.60 1740.36
17 1 0 < 27.04 36.17
19 1 0 o 794.00 755.52
21 1 0 o 236.57 244.76
-20 2 0 < 38.25 0.46
-18 2 0 o 1196.24 953.60
-16 2 0 o 501.64 431.76
-14 2 0 o 643.68 618.16
-12 2 0 o 1653.30 1583.02
-10 2 0 o 1173.34 1215.42
-8 2 0 o 711.66 750.06
-6 2 0 o 14149.80 14677.80
-4 2 0 o 1983.43 2231.48
-2 2 0 o 8641.70 9242.62
0 2 0 o 11767.50 13549.00
2 2 0 o 5131.91 5307.93
4 2 0 o 5894.00 6207.85
6 2 0 o 13723.90 13987.30
8 2 0 < 14.13 5.14
10 2 0 o 1809.47 1759.26
12 2 0 o 1249.11 1376.28
14 2 0 o 286.03 290.39
16 2 0 o 740.16 749.79
18 2 0 o 703.37 759.95
20 2 0 < 12.67 44.03
-21 3 0 o 391.52 396.84
-19 3 0 o 221.46 226.99
-17 3 0 < 10.72 3.00
-15 3 0 o 1502.25 1457.91
-13 3 0 o 2704.34 2695.66
-11 3 0 o 791.57 788.59
-9 3 0 o 5191.60 5305.52
-7 3 0 o 515.04 547.56
-5 3 0 o 285.78 310.71
-3 3 0 o 5479.09 5822.07
-1 3 0 o 2358.14 2334.88
1 3 0 o 5756.59 6059.74
3 3 0 o 3012.54 3236.29
5 3 0 < 16.81 4.29
7 3 0 o 1546.35 1572.44
9 3 0 o 4569.60 4663.77
11 3 0 < 13.64 1.32
13 3 0 o 3559.98 3413.77
15 3 0 o 739.43 668.36
17 3 0 o 94.04 101.70
19 3 0 o 418.08 412.86
-20 4 0 < 52.14 20.51
-18 4 0 o 544.77 584.64
-16 4 0 o 223.41 207.93
-14 4 0 o 379.10 343.71
-12 4 0 o 1719.08 1673.47
-10 4 0 o 410.77 406.16
-8 4 0 o 1221.58 1236.67
-6 4 0 o 4918.24 4998.04
-4 4 0 o 1151.66 1095.45
-2 4 0 o 3675.95 3715.52
0 4 0 o 9796.04 9807.69
2 4 0 o 350.35 333.78
4 4 0 o 4407.34 4480.94
6 4 0 o 3932.99 4000.23
8 4 0 o 81.62 74.20
10 4 0 o 1648.19 1577.84
12 4 0 o 1430.13 1339.55
14 4 0 < 24.12 0.85
16 4 0 o 498.72 483.26
18 4 0 o 406.62 306.32
-17 5 0 o 130.83 96.26
-15 5 0 o 1175.29 1187.17
-13 5 0 o 440.73 405.47
-11 5 0 o 141.31 125.41
-9 5 0 o 2981.11 3007.15
-7 5 0 o 1260.81 1228.08
-5 5 0 o 2640.99 2615.20
-3 5 0 o 2535.50 2369.10
-1 5 0 < 16.32 5.07
1 5 0 o 524.54 502.30
3 5 0 o 3393.34 3272.64
5 5 0 o 103.30 108.62
7 5 0 o 3379.94 3434.25
9 5 0 o 1142.40 1102.47
11 5 0 o 101.84 98.85
13 5 0 o 1104.39 1011.59
15 5 0 o 756.97 710.19
17 5 0 o 196.12 119.23
-16 6 0 o 167.86 115.61
-14 6 0 o 251.92 205.87
-12 6 0 o 1278.59 1193.92
-10 6 0 o 90.39 53.50
-8 6 0 o 965.28 884.67
-6 6 0 o 1847.48 1703.88
-4 6 0 o 503.11 468.08
-2 6 0 o 2109.87 2013.56
0 6 0 o 4876.09 4517.68
2 6 0 < 15.11 2.30
4 6 0 o 2436.59 2308.89
6 6 0 o 1545.13 1471.43
8 6 0 < 20.95 6.16
10 6 0 o 1099.76 1030.17
12 6 0 o 661.71 616.60
14 6 0 < 75.04 17.38
-13 7 0 o 482.40 369.47
-11 7 0 o 507.00 433.86
-9 7 0 o 1365.08 1308.15
-7 7 0 < 73.82 65.00
-5 7 0 o 635.89 560.29
-3 7 0 o 1582.89 1409.56
-1 7 0 < 76.99 36.41
1 7 0 o 1526.61 1302.43
3 7 0 o 852.96 730.80
5 7 0 < 13.16 6.15
7 7 0 o 805.21 723.60
9 7 0 o 1021.56 900.71
11 7 0 < 147.64 79.19
-10 8 0 < 78.94 84.15
-8 8 0 o 428.80 356.67
-6 8 0 o 1393.59 1342.05
-4 8 0 o 192.96 2.46
-2 8 0 o 1089.78 944.89
0 8 0 o 1276.40 868.95
2 8 0 < 23.88 43.16
4 8 0 o 1692.77 1305.89
6 8 0 o 998.90 834.46
8 8 0 < 222.44 147.18
-8 -8 1 o 718.23 613.95
-6 -8 1 < 255.09 257.10
-4 -8 1 < 13.89 7.73
-2 -8 1 o 1235.71 1136.59
0 -8 1 o 512.61 594.91
2 -8 1 o 300.16 351.16
4 -8 1 o 825.68 755.28
6 -8 1 < 159.34 329.87
8 -8 1 < 34.84 35.10
-13 -7 1 < 110.37 10.61
-11 -7 1 o 426.60 407.57
-9 -7 1 o 1057.37 942.96
-7 -7 1 < 11.21 4.90
-5 -7 1 o 1766.83 1657.10
-3 -7 1 o 1109.51 987.98
-1 -7 1 < 75.04 64.91
1 -7 1 o 1665.00 1446.21
3 -7 1 o 1046.65 860.68
5 -7 1 o 442.68 370.08
7 -7 1 o 1200.39 1169.96
9 -7 1 < 61.40 34.80
11 -7 1 o 258.98 175.87
-14 -6 1 o 424.17 407.70
-12 -6 1 o 678.03 630.07
-10 -6 1 < 30.94 2.05
-8 -6 1 o 1767.57 1812.37
-6 -6 1 o 976.73 994.37
-4 -6 1 o 766.72 794.65
-2 -6 1 o 1999.51 2055.13
0 -6 1 o 504.57 542.03
2 -6 1 o 299.67 272.49
4 -6 1 o 3323.66 3161.91
6 -6 1 o 758.43 759.38
8 -6 1 o 925.32 907.75
10 -6 1 o 1559.26 1455.85
12 -6 1 o 238.27 189.41
14 -6 1 o 297.23 280.02
-17 -5 1 o 399.07 401.96
-15 -5 1 o 806.43 775.65
-13 -5 1 < 38.74 17.75
-11 -5 1 o 2211.22 2275.32
-9 -5 1 o 832.74 880.50
-7 -5 1 o 63.34 48.13
-5 -5 1 o 1825.06 1958.38
-3 -5 1 o 3957.35 4153.06
-1 -5 1 o 440.73 449.87
1 -5 1 o 5647.20 5777.33
3 -5 1 o 286.76 254.40
5 -5 1 o 677.30 665.17
7 -5 1 o 1494.94 1426.96
9 -5 1 o 382.75 400.24
11 -5 1 o 948.22 926.26
13 -5 1 o 865.15 848.10
15 -5 1 < 12.43 7.82
17 -5 1 o 258.74 196.06
-18 -4 1 o 438.54 444.44
-16 -4 1 < 29.72 6.31
-14 -4 1 o 919.72 874.04
-12 -4 1 o 1125.10 1119.27
-10 -4 1 o 114.26 115.02
-8 -4 1 o 3393.82 3624.30
-6 -4 1 o 995.24 1098.69
-4 -4 1 o 1821.41 1897.70
-2 -4 1 o 4838.82 4903.72
0 -4 1 o 662.44 709.51
2 -4 1 o 1763.67 1848.52
4 -4 1 o 5148.72 5582.77
6 -4 1 o 817.88 881.01
8 -4 1 o 1710.31 1755.26
10 -4 1 o 3407.95 3410.48
12 -4 1 o 183.21 180.29
14 -4 1 o 983.31 962.35
16 -4 1 o 809.35 764.81
18 -4 1 < 41.42 1.04
-19 -3 1 < 24.12 13.80
-17 -3 1 o 1623.33 1546.58
-15 -3 1 o 605.19 552.90
-13 -3 1 o 275.31 272.99
-11 -3 1 o 1946.15 2017.91
-9 -3 1 o 3241.55 3565.27
-7 -3 1 o 293.09 311.74
-5 -3 1 o 9248.35 10119.70
-3 -3 1 o 1676.93 1785.86
-1 -3 1 o 497.74 531.15
1 -3 1 o 5877.43 5983.73
3 -3 1 o 3560.96 3624.33
5 -3 1 o 3602.13 3585.08
7 -3 1 o 3822.38 3931.05
9 -3 1 o 118.65 111.47
11 -3 1 o 690.46 691.42
13 -3 1 o 945.54 909.08
15 -3 1 o 52.14 60.53
17 -3 1 o 969.66 924.59
19 -3 1 o 351.32 383.96
-20 -2 1 < 194.66 229.83
-18 -2 1 o 351.56 381.26
-16 -2 1 < 71.38 59.14
-14 -2 1 o 1840.17 1781.91
-12 -2 1 o 1995.36 2012.18
-10 -2 1 o 1617.24 1513.20
-8 -2 1 o 3979.03 4068.98
-6 -2 1 o 511.39 513.51
-4 -2 1 o 1740.52 1929.75
-2 -2 1 o 13462.00 14299.00
0 -2 1 o 378.85 385.34
2 -2 1 o 9810.90 9257.26
4 -2 1 o 5762.19 5935.02
6 -2 1 o 907.05 906.28
8 -2 1 o 2624.91 2468.16
10 -2 1 o 6698.48 6887.63
12 -2 1 < 40.69 29.35
14 -2 1 o 1973.19 1934.47
16 -2 1 o 763.55 692.73
18 -2 1 < 0.00 1.36
20 -2 1 o 196.86 240.68
-21 -1 1 o 292.61 322.22
-19 -1 1 < 108.66 108.62
-17 -1 1 o 1680.83 1521.56
-15 -1 1 o 955.53 921.49
-13 -1 1 o 727.00 635.04
-11 -1 1 o 4914.83 5128.95
-9 -1 1 o 2028.01 2030.78
-7 -1 1 o 819.59 838.68
-5 -1 1 o 10392.20 10226.10
-3 -1 1 o 10765.20 10416.00
-1 -1 1 o 4077.70 3880.43
1 -1 1 o 17727.10 17291.90
3 -1 1 o 371.54 323.50
5 -1 1 o 3153.60 2911.37
7 -1 1 o 3657.92 3568.30
9 -1 1 o 76.01 32.78
11 -1 1 o 2639.29 2370.52
13 -1 1 o 1166.52 1061.33
15 -1 1 < 92.82 72.66
17 -1 1 o 721.64 642.02
19 -1 1 o 399.80 425.80
-22 0 1 < 0.00 7.30
-20 0 1 o 475.33 423.97
-18 0 1 o 737.72 733.44
-16 0 1 o 165.43 154.84
-14 0 1 o 1382.62 1375.68
-12 0 1 o 962.35 976.70
-10 0 1 o 165.67 171.09
-8 0 1 o 9964.15 10896.60
-6 0 1 o 611.03 670.03
-4 0 1 o 18590.50 19138.90
-2 0 1 o 3102.44 3162.91
0 0 1 o 123.04 110.11
2 0 1 o 4556.93 3836.05
4 0 1 o 24363.40 20737.50
6 0 1 o 59.69 39.28
8 0 1 o 8703.34 7700.56
10 0 1 o 3145.32 3015.32
12 0 1 o 100.13 101.93
14 0 1 o 1747.34 1782.95
16 0 1 o 1429.89 1547.42
18 0 1 < 78.94 107.50
20 0 1 o 292.85 342.18
-21 1 1 o 233.65 208.35
-19 1 1 o 205.63 181.51
-17 1 1 o 1600.68 1511.66
-15 1 1 o 912.90 785.73
-13 1 1 o 1087.10 1138.18
-11 1 1 o 5918.85 5699.91
-9 1 1 o 1147.76 1006.60
-7 1 1 o 1282.49 1301.33
-5 1 1 o 11454.70 11311.50
-3 1 1 o 8975.97 8334.10
-1 1 1 o 6644.39 6316.27
1 1 1 o 17611.60 15553.30
3 1 1 o 187.84 174.60
5 1 1 o 4263.35 4111.64
7 1 1 o 3472.76 3149.22
9 1 1 < 15.59 20.76
11 1 1 o 2247.28 2330.98
13 1 1 o 728.71 774.34
15 1 1 < 41.42 99.71
17 1 1 o 717.50 771.40
19 1 1 o 344.01 320.09
-22 2 1 < 50.43 35.67
-20 2 1 o 476.06 317.30
-18 2 1 o 337.19 316.02
-16 2 1 < 23.15 10.10
-14 2 1 o 2514.55 2252.32
-12 2 1 o 1111.95 1022.55
-10 2 1 o 2390.05 2460.88
-8 2 1 o 3418.43 3681.41
-6 2 1 o 79.91 81.62
-4 2 1 o 3782.66 4032.68
-2 2 1 o 12573.00 13043.00
0 2 1 o 375.44 311.75
2 2 1 o 11832.10 11541.60
4 2 1 o 3560.71 3511.54
6 2 1 o 205.87 207.96
8 2 1 o 4138.13 4167.40
10 2 1 o 5675.46 5600.97
12 2 1 o 166.16 163.70
14 2 1 o 2116.94 2219.49
16 2 1 o 304.30 384.28
18 2 1 < 0.00 15.06
-21 3 1 o 286.76 272.57
-19 3 1 o 297.23 258.04
-17 3 1 o 1879.39 1754.25
-15 3 1 o 60.91 66.00
-13 3 1 o 884.39 882.38
-11 3 1 o 2383.47 2637.59
-9 3 1 o 1730.05 1876.04
-7 3 1 o 2816.65 3143.03
-5 3 1 o 8893.86 9361.96
-3 3 1 o 150.32 159.52
-1 3 1 o 1624.07 1708.63
1 3 1 o 7581.65 7542.06
3 3 1 o 819.83 778.07
5 3 1 o 6407.33 6505.37
7 3 1 o 1820.92 1849.48
9 3 1 o 538.43 543.35
11 3 1 o 953.34 906.83
13 3 1 o 633.45 602.27
15 3 1 o 59.45 52.57
17 3 1 o 956.99 953.48
19 3 1 o 118.65 107.60
-20 4 1 o 353.51 270.51
-18 4 1 o 249.24 224.83
-16 4 1 o 134.73 106.34
-14 4 1 o 1255.93 1290.36
-12 4 1 o 329.64 383.79
-10 4 1 o 1106.10 1187.27
-8 4 1 o 3059.07 3345.94
-6 4 1 < 13.89 8.89
-4 4 1 o 4333.28 4482.55
-2 4 1 o 3054.44 3163.86
0 4 1 o 117.92 110.27
2 4 1 o 3977.08 4202.11
4 4 1 o 3591.41 3746.74
6 4 1 o 86.49 72.52
8 4 1 o 3527.82 3454.51
10 4 1 o 1797.78 1752.33
12 4 1 o 80.64 77.15
14 4 1 o 1529.54 1460.02
16 4 1 o 442.93 399.85
-19 5 1 o 177.37 174.72
-17 5 1 o 696.79 638.02
-15 5 1 o 256.30 226.38
-13 5 1 o 1121.94 1125.94
-11 5 1 o 2175.65 2206.75
-9 5 1 < 15.11 4.31
-7 5 1 o 807.16 869.93
-5 5 1 o 3020.09 3191.91
-3 5 1 o 955.78 991.22
-1 5 1 o 4148.36 4336.70
1 5 1 o 3344.85 3355.06
3 5 1 o 231.70 239.40
5 5 1 o 1441.58 1369.31
7 5 1 o 1322.93 1204.68
9 5 1 o 97.45 69.44
11 5 1 o 1774.63 1632.96
13 5 1 o 116.21 102.79
15 5 1 o 210.99 178.49
-16 6 1 o 248.02 168.64
-14 6 1 o 564.50 506.23
-12 6 1 o 158.36 149.92
-10 6 1 o 644.90 618.76
-8 6 1 o 2084.78 2110.29
-6 6 1 < 29.48 33.76
-4 6 1 o 2550.61 2600.12
-2 6 1 o 924.35 909.27
0 6 1 o 70.41 60.19
2 6 1 o 2167.86 2047.32
4 6 1 o 1747.34 1691.38
6 6 1 o 203.68 193.21
8 6 1 o 1891.58 1807.19
10 6 1 o 617.86 612.64
12 6 1 o 103.30 79.44
14 6 1 o 815.44 848.45
-13 7 1 o 527.47 440.89
-11 7 1 o 788.89 696.50
-9 7 1 < 63.10 64.29
-7 7 1 o 1139.96 1067.79
-5 7 1 o 1554.14 1433.17
-3 7 1 < 14.13 0.39
-1 7 1 o 1237.91 1049.50
1 7 1 o 1564.13 1414.83
3 7 1 < 23.39 13.00
5 7 1 o 1872.57 1748.98
7 7 1 o 246.07 254.77
9 7 1 o 324.76 247.91
11 7 1 o 335.48 301.47
-10 8 1 o 593.74 606.97
-8 8 1 o 500.67 314.54
-6 8 1 < 141.55 1.61
-4 8 1 o 1286.88 816.22
-2 8 1 o 1297.60 855.22
0 8 1 o 622.24 301.29
2 8 1 o 1148.25 1010.20
4 8 1 o 527.96 167.56
6 8 1 < 228.77 14.87
-6 -8 2 < 0.00 92.55
-4 -8 2 o 785.23 686.94
-2 -8 2 < 66.02 143.32
0 -8 2 < 1.22 76.65
2 -8 2 o 1036.18 1018.40
4 -8 2 < 0.00 195.51
-11 -7 2 o 384.45 411.43
-9 -7 2 o 263.37 223.86
-7 -7 2 o 1243.02 1161.28
-5 -7 2 o 606.41 505.55
-3 -7 2 o 307.95 336.57
-1 -7 2 o 1891.33 1869.10
1 -7 2 o 175.90 213.35
3 -7 2 o 459.74 356.70
5 -7 2 o 697.28 829.77
7 -7 2 o 317.45 297.55
9 -7 2 o 349.13 282.74
-14 -6 2 o 425.39 412.17
-12 -6 2 o 131.56 102.21
-10 -6 2 o 838.10 847.77
-8 -6 2 o 253.87 312.18
-6 -6 2 o 107.20 64.54
-4 -6 2 o 1673.77 1648.59
-2 -6 2 o 698.99 711.98
0 -6 2 o 1093.67 1131.35
2 -6 2 o 1839.19 1927.63
4 -6 2 < 17.54 22.84
6 -6 2 o 866.61 839.55
8 -6 2 o 1296.62 1294.59
10 -6 2 < 13.16 3.93
12 -6 2 o 807.89 782.06
-17 -5 2 o 159.09 181.61
-15 -5 2 o 96.48 105.86
-13 -5 2 o 626.63 742.33
-11 -5 2 o 790.11 857.16
-9 -5 2 o 323.06 357.01
-7 -5 2 o 4358.61 4596.11
-5 -5 2 o 321.11 309.92
-3 -5 2 o 1659.88 1711.97
-1 -5 2 o 2050.43 2062.44
1 -5 2 o 883.42 909.46
3 -5 2 o 877.81 896.12
5 -5 2 o 3056.15 3316.48
7 -5 2 < 37.76 40.22
9 -5 2 o 658.30 678.82
11 -5 2 o 727.49 718.82
13 -5 2 < 54.57 61.00
15 -5 2 o 566.21 554.70
-18 -4 2 < 23.39 27.40
-16 -4 2 o 967.23 951.57
-14 -4 2 o 497.99 557.42
-12 -4 2 o 266.05 275.32
-10 -4 2 o 1522.71 1657.51
-8 -4 2 o 508.71 577.25
-6 -4 2 o 384.45 424.22
-4 -4 2 o 2896.57 3034.28
-2 -4 2 o 640.27 635.99
0 -4 2 o 2089.41 2130.60
2 -4 2 o 3705.92 3756.44
4 -4 2 < 11.45 4.50
6 -4 2 o 2692.89 2692.43
8 -4 2 o 1750.02 1783.60
10 -4 2 o 47.26 38.28
12 -4 2 o 1165.06 1167.20
14 -4 2 o 623.95 645.79
16 -4 2 < 14.62 2.38
-19 -3 2 o 232.43 210.65
-17 -3 2 o 287.49 288.65
-15 -3 2 o 97.21 84.12
-13 -3 2 o 2548.90 2711.72
-11 -3 2 o 494.82 536.03
-9 -3 2 o 1842.36 1987.98
-7 -3 2 o 3750.26 3995.49
-5 -3 2 o 1311.24 1370.05
-3 -3 2 o 3457.17 3437.35
-1 -3 2 o 9336.79 9164.67
1 -3 2 o 20.47 15.05
3 -3 2 o 2187.10 2128.79
5 -3 2 o 2412.47 2469.63
7 -3 2 o 776.46 791.46
9 -3 2 o 1824.33 1815.49
11 -3 2 o 2084.78 2048.19
13 -3 2 o 121.33 126.13
15 -3 2 o 530.88 575.64
17 -3 2 o 123.04 134.81
-20 -2 2 < 377.39 541.26
-18 -2 2 < 150.32 212.87
-16 -2 2 o 1394.07 1575.33
-14 -2 2 o 259.23 298.08
-12 -2 2 o 217.81 232.00
-10 -2 2 o 2999.14 2810.98
-8 -2 2 o 1332.68 1350.54
-6 -2 2 o 2398.82 2460.39
-4 -2 2 o 3629.91 3567.94
-2 -2 2 o 149.35 133.23
0 -2 2 o 2105.73 2063.73
2 -2 2 o 7367.01 6850.06
4 -2 2 o 78.94 10.39
6 -2 2 o 7143.35 6922.23
8 -2 2 o 1499.08 1437.01
10 -2 2 o 314.04 243.27
12 -2 2 o 1485.68 1411.11
14 -2 2 o 1233.52 1036.19
16 -2 2 < 0.00 45.94
18 -2 2 o 659.76 698.02
-21 -1 2 < 81.13 52.06
-19 -1 2 o 566.45 476.19
-17 -1 2 < 106.47 196.96
-15 -1 2 o 407.60 413.49
-13 -1 2 o 1989.03 2372.83
-11 -1 2 o 743.33 747.40
-9 -1 2 o 2785.71 2968.19
-7 -1 2 o 10003.40 10056.30
-5 -1 2 o 114.51 77.85
-3 -1 2 o 8561.79 7390.23
-1 -1 2 o 8044.56 7296.40
1 -1 2 o 762.09 659.40
3 -1 2 o 5290.27 4598.75
5 -1 2 o 7022.51 5757.13
7 -1 2 < 4.63 5.16
9 -1 2 o 2214.63 1977.83
11 -1 2 o 1495.91 1492.73
13 -1 2 < 51.16 8.79
15 -1 2 o 1264.95 1198.79
17 -1 2 o 157.39 188.30
-22 0 2 o 488.97 486.51
-20 0 2 o 200.51 220.80
-18 0 2 < 116.21 118.28
-16 0 2 o 1969.54 1916.62
-14 0 2 o 707.51 823.38
-12 0 2 o 1648.92 1917.89
-10 0 2 o 2507.97 2498.07
-8 0 2 o 96.24 85.22
-6 0 2 o 230.72 235.21
-4 0 2 o 8180.75 8138.47
-2 0 2 o 758.43 635.05
0 0 2 o 12608.80 11546.80
2 0 2 o 3034.95 2708.76
4 0 2 o 759.65 601.76
6 0 2 o 3982.44 3593.28
8 0 2 o 3590.92 3371.20
10 0 2 o 591.79 603.58
12 0 2 o 3130.21 3155.30
14 0 2 o 263.37 252.65
16 0 2 < 40.44 60.43
18 0 2 o 443.17 509.75
-21 1 2 < 42.15 82.82
-19 1 2 o 606.41 548.35
-17 1 2 < 111.10 86.57
-15 1 2 o 635.15 604.22
-13 1 2 o 2145.44 2108.83
-11 1 2 o 497.01 511.51
-9 1 2 o 3799.96 4069.21
-7 1 2 o 10632.40 9497.08
-5 1 2 o 42.39 38.31
-3 1 2 o 9565.08 8578.32
-1 1 2 o 8289.65 6944.69
1 1 2 o 180.53 91.76
3 1 2 o 5938.58 5256.62
5 1 2 o 5221.32 4867.72
7 1 2 < 20.47 15.61
9 1 2 o 2496.52 2325.85
11 1 2 o 1418.44 1341.23
13 1 2 < 40.93 98.75
15 1 2 o 1032.52 1112.20
17 1 2 < 88.93 103.07
-22 2 2 o 467.05 432.05
-20 2 2 o 497.26 316.24
-18 2 2 o 665.12 499.43
-16 2 2 o 1946.64 1575.87
-14 2 2 < 96.48 106.72
-12 2 2 o 705.81 703.75
-10 2 2 o 3023.50 3089.16
-8 2 2 o 438.05 412.60
-6 2 2 o 3851.86 3862.82
-4 2 2 o 2511.62 2446.78
-2 2 2 < 10.23 0.69
0 2 2 o 2985.74 2846.40
2 2 2 o 6263.10 5961.31
4 2 2 o 777.68 777.65
6 2 2 o 7705.42 7152.44
8 2 2 o 456.08 476.62
10 2 2 o 544.28 611.00
12 2 2 o 1441.10 1486.73
14 2 2 o 610.79 667.01
16 2 2 o 235.35 252.00
18 2 2 o 571.08 696.81
-21 3 2 o 184.19 135.50
-19 3 2 o 228.29 202.93
-17 3 2 o 132.54 128.69
-15 3 2 o 479.47 530.44
-13 3 2 o 2383.23 2577.94
-11 3 2 < 9.26 4.05
-9 3 2 o 3122.90 3219.56
-7 3 2 o 3166.76 3285.54
-5 3 2 o 128.40 128.32
-3 3 2 o 7927.61 7836.82
-1 3 2 o 6105.47 5833.29
1 3 2 o 844.68 797.91
3 3 2 o 2925.80 2886.46
5 3 2 o 1985.86 2015.24
7 3 2 o 42.15 39.21
9 3 2 o 2960.16 2872.01
11 3 2 o 905.83 907.76
13 3 2 o 396.64 418.67
15 3 2 o 555.97 541.06
17 3 2 < 31.19 52.63
-20 4 2 < 87.71 103.69
-18 4 2 o 357.90 354.36
-16 4 2 o 1104.39 1092.45
-14 4 2 o 60.42 58.64
-12 4 2 o 1053.96 1093.87
-10 4 2 o 1469.84 1586.24
-8 4 2 < 18.76 10.71
-6 4 2 o 1487.14 1577.26
-4 4 2 o 2275.79 2328.16
-2 4 2 o 26.56 17.23
0 4 2 o 3835.53 3824.29
2 4 2 o 1582.40 1584.87
4 4 2 o 656.35 654.56
6 4 2 o 3139.23 3166.33
8 4 2 o 604.46 586.28
10 4 2 o 803.51 759.30
12 4 2 o 1318.79 1331.69
14 4 2 o 93.07 94.98
-19 5 2 o 338.89 311.24
-17 5 2 < 6.82 2.08
-15 5 2 o 398.83 418.22
-13 5 2 o 651.97 673.24
-11 5 2 o 87.95 94.84
-9 5 2 o 2270.43 2384.80
-7 5 2 o 2797.16 2981.62
-5 5 2 o 583.50 611.34
-3 5 2 o 2867.57 2925.75
-1 5 2 o 1276.89 1314.38
1 5 2 < 17.79 10.26
3 5 2 o 3169.68 3330.56
5 5 2 o 1149.71 1205.73
7 5 2 o 416.61 416.10
9 5 2 o 845.90 828.72
11 5 2 o 394.20 390.08
13 5 2 o 92.34 77.55
-16 6 2 o 751.61 680.53
-14 6 2 < 53.84 6.10
-12 6 2 o 1011.08 941.00
-10 6 2 o 669.02 535.76
-8 6 2 < 39.96 5.23
-6 6 2 o 791.57 761.62
-4 6 2 o 1359.97 1346.90
-2 6 2 o 96.24 89.94
0 6 2 o 2218.78 2268.61
2 6 2 o 470.21 468.07
4 6 2 o 413.69 431.32
6 6 2 o 1543.67 1523.45
8 6 2 o 238.27 240.73
10 6 2 o 595.20 586.23
-13 7 2 o 541.84 517.68
-11 7 2 < 54.57 27.20
-9 7 2 o 1068.34 1011.52
-7 7 2 o 832.50 705.17
-5 7 2 < 66.51 68.67
-3 7 2 o 2086.97 2014.76
-1 7 2 o 744.06 648.70
1 7 2 o 443.17 425.95
3 7 2 o 933.85 862.29
5 7 2 o 311.85 337.45
7 7 2 o 137.41 52.11
-8 8 2 o 422.46 23.92
-6 8 2 o 837.13 751.06
-4 8 2 o 394.44 134.97
-2 8 2 o 364.23 39.55
0 8 2 o 719.94 602.92
2 8 2 o 957.48 476.72
-9 -7 3 o 670.24 608.40
-7 -7 3 < 93.31 88.65
-5 -7 3 o 396.88 436.08
-3 -7 3 o 658.30 789.48
-1 -7 3 < 114.75 119.62
1 -7 3 o 461.93 539.10
3 -7 3 o 1367.76 1346.77
5 -7 3 < 69.68 3.27
-12 -6 3 o 633.45 734.22
-10 -6 3 o 379.83 478.21
-8 -6 3 o 388.60 466.99
-6 -6 3 o 1425.02 1602.96
-4 -6 3 < 53.84 53.00
-2 -6 3 o 523.57 563.54
0 -6 3 o 963.57 974.08
2 -6 3 < 55.55 59.28
4 -6 3 o 741.87 802.83
6 -6 3 o 521.13 572.41
8 -6 3 < 31.92 14.63
-15 -5 3 o 692.90 753.84
-13 -5 3 < 66.51 84.63
-11 -5 3 o 620.29 719.23
-9 -5 3 o 622.48 651.11
-7 -5 3 o 84.30 87.61
-5 -5 3 o 563.28 583.65
-3 -5 3 o 2724.80 2802.63
-1 -5 3 o 46.78 27.94
1 -5 3 o 2169.32 2244.50
3 -5 3 o 1267.14 1342.11
5 -5 3 < 19.49 13.94
7 -5 3 o 1180.41 1241.61
9 -5 3 o 1107.07 1163.74
11 -5 3 o 68.70 84.52
-18 -4 3 o 367.16 404.11
-16 -4 3 o 166.65 154.50
-14 -4 3 o 189.79 195.81
-12 -4 3 o 1439.63 1509.29
-10 -4 3 o 498.23 510.58
-8 -4 3 o 971.13 1050.18
-6 -4 3 o 2770.36 2877.40
-4 -4 3 o 84.30 80.82
-2 -4 3 o 1654.28 1660.66
0 -4 3 o 1644.29 1657.88
2 -4 3 < 3.65 0.10
4 -4 3 o 1224.26 1265.96
6 -4 3 o 880.74 928.74
8 -4 3 < 28.75 31.09
10 -4 3 o 1010.11 1018.91
12 -4 3 o 417.10 399.57
-19 -3 3 o 200.51 176.59
-17 -3 3 o 270.43 322.43
-15 -3 3 o 667.31 714.00
-13 -3 3 o 66.51 58.16
-11 -3 3 o 687.29 674.44
-9 -3 3 o 2252.40 2274.57
-7 -3 3 < 12.91 2.56
-5 -3 3 o 2670.47 2644.17
-3 -3 3 o 1916.91 1855.15
-1 -3 3 o 95.26 85.12
1 -3 3 o 3119.25 3105.37
3 -3 3 o 4567.65 4534.21
5 -3 3 o 310.39 289.99
7 -3 3 o 2772.07 2815.18
9 -3 3 o 536.48 567.96
11 -3 3 < 8.28 12.07
13 -3 3 o 686.56 733.83
15 -3 3 o 360.09 364.67
-20 -2 3 < 121.33 136.12
-18 -2 3 < 477.04 478.36
-16 -2 3 o 360.58 296.29
-14 -2 3 o 709.71 648.03
-12 -2 3 o 2763.79 2549.10
-10 -2 3 o 175.90 158.70
-8 -2 3 o 1575.34 1422.76
-6 -2 3 o 4354.47 4019.33
-4 -2 3 o 255.57 248.09
-2 -2 3 o 4660.72 4239.32
0 -2 3 o 2189.54 2140.49
2 -2 3 o 307.95 246.07
4 -2 3 o 1468.38 1237.78
6 -2 3 o 1486.17 1246.15
8 -2 3 o 118.89 58.33
10 -2 3 o 2329.87 2021.63
12 -2 3 o 296.50 297.90
14 -2 3 o 357.17 330.29
-21 -1 3 < 343.77 340.29
-19 -1 3 < 148.86 145.25
-17 -1 3 o 506.76 339.33
-15 -1 3 o 1642.83 1269.10
-13 -1 3 < 37.28 9.78
-11 -1 3 o 2137.16 1760.95
-9 -1 3 o 1528.80 1458.89
-7 -1 3 < 21.93 2.93
-5 -1 3 o 3676.68 3028.92
-3 -1 3 o 4992.31 4310.83
-1 -1 3 o 213.67 168.60
1 -1 3 o 7068.80 5736.35
3 -1 3 o 3261.77 2830.87
5 -1 3 o 245.83 187.96
7 -1 3 o 4029.22 3761.05
9 -1 3 o 1272.50 1273.89
11 -1 3 o 334.02 405.37
13 -1 3 o 789.13 861.43
15 -1 3 < 109.88 144.77
-20 0 3 o 278.96 316.92
-18 0 3 o 660.74 720.90
-16 0 3 < 13.16 15.27
-14 0 3 o 531.37 524.23
-12 0 3 o 2400.04 2461.93
-10 0 3 o 750.39 667.77
-8 0 3 o 5435.97 4491.50
-6 0 3 o 4428.78 4257.29
-4 0 3 o 260.45 223.51
-2 0 3 o 2408.08 2126.13
0 0 3 o 2930.19 2751.69
2 0 3 o 26.56 24.42
4 0 3 o 4672.17 4160.76
6 0 3 o 518.70 495.17
8 0 3 o 500.42 489.14
10 0 3 o 985.50 976.17
12 0 3 o 537.21 548.10
14 0 3 o 359.36 392.64
16 0 3 o 978.43 1063.88
-21 1 3 < 289.68 316.29
-19 1 3 < 81.13 104.53
-17 1 3 o 381.29 428.26
-15 1 3 o 1145.08 1302.86
-13 1 3 < 19.49 12.52
-11 1 3 o 2035.56 2024.21
-9 1 3 o 1511.75 1150.16
-7 1 3 o 80.16 67.53
-5 1 3 o 3550.72 3478.35
-3 1 3 o 3718.10 3409.12
-1 1 3 o 481.18 444.72
1 1 3 o 6081.35 6166.15
3 1 3 o 2444.87 2257.27
5 1 3 o 592.03 556.28
7 1 3 o 3914.96 3869.90
9 1 3 o 817.88 797.19
11 1 3 o 525.52 500.82
13 1 3 o 881.96 890.88
15 1 3 < 124.98 115.78
-20 2 3 < 185.41 240.19
-18 2 3 < 495.55 479.89
-16 2 3 < 57.98 73.69
-14 2 3 o 1208.18 1158.15
-12 2 3 o 2299.66 2131.17
-10 2 3 < 10.23 0.13
-8 2 3 o 2279.20 2158.16
-6 2 3 o 4059.92 3737.56
-4 2 3 < 8.77 8.83
-2 2 3 o 5976.10 5612.65
0 2 3 o 1113.41 1014.57
2 2 3 o 667.07 638.69
4 2 3 o 1245.46 1295.78
6 2 3 o 742.11 878.51
8 2 3 o 274.09 347.88
10 2 3 o 1961.74 2006.52
12 2 3 < 18.76 44.95
14 2 3 o 405.16 472.17
-19 3 3 < 0.00 24.68
-17 3 3 o 613.71 604.63
-15 3 3 o 500.18 505.38
-13 3 3 < 17.30 3.80
-11 3 3 o 1342.91 1357.53
-9 3 3 o 1631.37 1583.20
-7 3 3 o 562.06 580.74
-5 3 3 o 3103.17 2982.19
-3 3 3 o 897.79 851.37
-1 3 3 o 143.99 126.28
1 3 3 o 4742.58 4629.40
3 3 3 o 2161.03 2124.41
5 3 3 o 1526.86 1564.53
7 3 3 o 2548.66 2582.53
9 3 3 o 160.80 178.71
11 3 3 o 199.54 238.86
13 3 3 o 816.91 861.03
-18 4 3 o 275.31 329.28
-16 4 3 < 17.30 0.11
-14 4 3 o 692.90 739.22
-12 4 3 o 1169.93 1224.95
-10 4 3 < 2.68 1.44
-8 4 3 o 2378.60 2397.68
-6 4 3 o 1758.55 1792.62
-4 4 3 o 292.36 282.58
-2 4 3 o 2478.25 2533.25
0 4 3 o 782.55 770.16
2 4 3 o 456.08 458.79
4 4 3 o 1653.30 1646.78
6 4 3 o 156.41 172.65
8 4 3 o 385.92 400.48
10 4 3 o 800.09 813.56
12 4 3 < 52.14 74.93
-17 5 3 o 278.23 300.57
-15 5 3 o 535.75 632.76
-13 5 3 o 107.93 137.53
-11 5 3 o 1076.62 1133.10
-9 5 3 o 169.57 187.59
-7 5 3 o 70.90 81.37
-5 5 3 o 1643.31 1709.16
-3 5 3 o 1075.64 1128.45
-1 5 3 o 915.82 948.47
1 5 3 o 2181.99 2266.40
3 5 3 o 299.43 305.44
5 5 3 o 355.22 359.04
7 5 3 o 1926.17 1997.12
9 5 3 o 126.20 158.91
11 5 3 o 664.39 685.14
-14 6 3 o 307.47 341.22
-12 6 3 o 555.00 637.20
-10 6 3 < 8.04 9.57
-8 6 3 o 1590.20 1660.96
-6 6 3 o 532.34 594.42
-4 6 3 o 338.41 318.02
-2 6 3 o 1165.30 1188.35
0 6 3 o 322.82 343.54
2 6 3 o 357.90 373.75
4 6 3 o 918.74 966.25
6 6 3 < 38.98 23.06
8 6 3 o 225.12 261.74
-11 7 3 < 367.89 506.73
-9 7 3 o 173.22 212.33
-7 7 3 o 251.67 292.19
-5 7 3 o 714.34 755.43
-3 7 3 < 115.00 128.56
-1 7 3 o 193.69 179.26
1 7 3 o 1329.02 1279.36
3 7 3 o 330.37 213.45
-8 -6 4 o 480.20 495.67
-6 -6 4 < 12.67 43.42
-4 -6 4 o 478.74 576.28
-2 -6 4 o 803.75 928.16
0 -6 4 < 24.12 0.12
2 -6 4 o 557.19 579.03
-13 -5 4 < 78.94 75.89
-11 -5 4 o 726.03 759.79
-9 -5 4 o 100.13 75.98
-7 -5 4 o 979.90 1040.48
-5 -5 4 o 623.70 666.71
-3 -5 4 < 45.80 43.85
-1 -5 4 o 858.57 829.53
1 -5 4 o 797.41 806.22
3 -5 4 o 141.06 135.06
5 -5 4 o 1069.31 1144.06
7 -5 4 o 153.49 169.07
-16 -4 4 o 365.45 336.09
-14 -4 4 o 707.76 712.47
-12 -4 4 < 16.32 0.99
-10 -4 4 o 900.72 932.15
-8 -4 4 o 961.62 920.16
-6 -4 4 < 22.17 0.80
-4 -4 4 o 1237.66 1163.02
-2 -4 4 o 1482.76 1427.68
0 -4 4 < 12.43 2.50
2 -4 4 o 1420.87 1435.21
4 -4 4 o 780.12 852.70
6 -4 4 o 87.71 94.69
8 -4 4 o 739.67 826.15
-17 -3 4 o 388.11 365.38
-15 -3 4 < 68.95 67.70
-13 -3 4 o 557.92 495.82
-11 -3 4 o 746.49 752.14
-9 -3 4 < 24.85 13.77
-7 -3 4 o 1018.15 988.75
-5 -3 4 o 1891.58 1741.96
-3 -3 4 o 263.12 190.46
-1 -3 4 o 2835.90 2685.61
1 -3 4 o 321.35 297.88
3 -3 4 o 285.78 273.95
5 -3 4 o 1041.78 1136.67
7 -3 4 o 687.05 695.28
9 -3 4 o 303.81 320.37
11 -3 4 o 966.25 1020.00
-18 -2 4 < 0.00 4.70
-16 -2 4 o 457.55 571.93
-14 -2 4 o 699.72 725.26
-12 -2 4 < 3.17 0.05
-10 -2 4 o 1870.87 1741.36
-8 -2 4 o 1631.13 1484.01
-6 -2 4 o 215.37 151.52
-4 -2 4 o 2281.88 1718.92
-2 -2 4 o 1714.70 1510.32
0 -2 4 < 32.16 6.43
2 -2 4 o 3086.36 2754.76
4 -2 4 o 1143.13 1091.67
6 -2 4 o 570.84 453.90
8 -2 4 o 955.05 933.33
10 -2 4 < 82.59 126.20
12 -2 4 o 125.23 157.40
-19 -1 4 < 180.05 226.91
-17 -1 4 o 332.32 362.65
-15 -1 4 < 13.16 18.90
-13 -1 4 o 431.72 480.96
-11 -1 4 o 1749.78 1255.00
-9 -1 4 < 0.00 0.78
-7 -1 4 o 2922.15 2203.04
-5 -1 4 o 1234.98 1074.26
-3 -1 4 o 461.20 383.10
-1 -1 4 o 2792.05 2570.08
1 -1 4 o 706.29 711.94
3 -1 4 o 925.08 871.12
5 -1 4 o 1789.98 1982.33
7 -1 4 o 115.73 180.31
9 -1 4 o 318.19 311.58
11 -1 4 o 1032.77 1062.91
-20 0 4 < 203.43 232.20
-18 0 4 < 42.15 24.68
-16 0 4 o 763.06 860.22
-14 0 4 o 966.74 1057.07
-12 0 4 o 215.37 265.13
-10 0 4 o 2333.28 1684.30
-8 0 4 o 1305.88 953.55
-6 0 4 < 16.08 18.31
-4 0 4 o 3599.69 3382.02
-2 0 4 o 1676.69 1748.12
0 0 4 o 578.88 536.13
2 0 4 o 1916.91 1895.90
4 0 4 o 838.83 922.67
6 0 4 o 210.50 226.60
8 0 4 o 1842.36 1956.39
10 0 4 < 15.84 35.00
12 0 4 o 407.60 474.81
-19 1 4 o 352.54 302.55
-17 1 4 o 451.45 303.70
-15 1 4 < 0.00 2.08
-13 1 4 o 589.59 574.71
-11 1 4 o 899.50 1148.03
-9 1 4 < 26.31 33.23
-7 1 4 o 2543.30 2369.61
-5 1 4 o 885.61 825.36
-3 1 4 o 716.77 671.11
-1 1 4 o 2581.55 2565.72
1 1 4 o 409.06 392.27
3 1 4 o 1027.65 1104.70
5 1 4 o 2013.64 1833.42
7 1 4 o 132.29 103.76
9 1 4 o 481.18 508.27
11 1 4 o 998.17 999.24
-18 2 4 < 122.79 10.60
-16 2 4 o 982.09 717.50
-14 2 4 o 457.79 544.30
-12 2 4 < 85.27 95.37
-10 2 4 o 2361.06 2232.11
-8 2 4 o 937.50 825.23
-6 2 4 o 591.06 608.16
-4 2 4 o 1736.14 1817.95
-2 2 4 o 1026.43 1066.01
0 2 4 o 148.86 168.10
2 2 4 o 3040.07 3203.28
4 2 4 o 367.89 443.26
6 2 4 o 732.61 831.08
8 2 4 o 660.49 755.96
10 2 4 < 34.11 49.29
-17 3 4 o 331.59 335.43
-15 3 4 < 12.67 5.99
-13 3 4 o 797.41 790.32
-11 3 4 o 445.61 404.47
-9 3 4 < 64.81 48.56
-7 3 4 o 1594.10 1451.16
-5 3 4 o 988.67 961.65
-3 3 4 o 1061.03 1038.23
-1 3 4 o 2447.06 2349.38
1 3 4 < 10.48 12.30
3 3 4 o 644.41 690.54
5 3 4 o 1106.34 1150.54
7 3 4 o 118.41 136.55
9 3 4 o 691.68 781.34
-16 4 4 o 557.68 587.16
-14 4 4 o 339.38 351.26
-12 4 4 o 252.16 256.57
-10 4 4 o 1276.16 1321.93
-8 4 4 o 325.49 329.10
-6 4 4 o 360.33 357.95
-4 4 4 o 1751.24 1703.59
-2 4 4 o 466.80 457.92
0 4 4 o 460.47 449.72
2 4 4 o 1500.79 1524.87
4 4 4 o 212.94 241.58
6 4 4 o 487.27 518.03
8 4 4 o 694.60 822.44
-15 5 4 < 33.62 10.77
-13 5 4 o 246.31 310.99
-11 5 4 o 475.33 506.46
-9 5 4 o 152.76 170.17
-7 5 4 o 1233.28 1287.06
-5 5 4 o 79.18 75.62
-3 5 4 o 421.24 419.46
-1 5 4 o 1008.40 1085.09
1 5 4 o 83.08 93.97
3 5 4 o 1011.33 1050.42
5 5 4 o 592.52 640.57
-10 6 4 o 473.14 598.72
-8 6 4 < 56.28 114.68
-6 6 4 o 164.21 242.61
-4 6 4 o 926.30 1023.68
-2 6 4 o 125.47 120.56
0 6 4 o 365.94 384.65
2 6 4 o 588.62 692.29
-10 -4 5 o 428.07 415.49
-8 -4 5 < 33.38 24.52
-6 -4 5 o 1018.39 1015.27
-4 -4 5 o 497.50 471.12
-2 -4 5 o 199.54 205.54
0 -4 5 o 1103.18 1065.58
2 -4 5 o 221.95 237.87
-13 -3 5 o 549.15 481.19
-11 -3 5 < 5.85 14.28
-9 -3 5 o 1043.73 954.29
-7 -3 5 o 313.56 282.41
-5 -3 5 o 150.32 103.06
-3 -3 5 o 558.65 523.06
-1 -3 5 o 495.07 484.24
1 -3 5 o 132.05 130.54
3 -3 5 o 1132.90 1152.30
5 -3 5 < 35.33 48.62
-14 -2 5 < 108.17 28.95
-12 -2 5 o 593.01 514.04
-10 -2 5 o 355.22 338.09
-8 -2 5 < 0.00 48.86
-6 -2 5 o 1851.38 1511.77
-4 -2 5 o 752.34 681.93
-2 -2 5 o 823.48 677.06
0 -2 5 o 1382.38 1492.02
2 -2 5 < 97.21 129.61
4 -2 5 o 256.55 251.04
6 -2 5 o 788.89 853.04
-15 -1 5 o 676.33 648.12
-13 -1 5 o 536.24 447.14
-11 -1 5 < 78.94 110.30
-9 -1 5 o 1240.10 926.84
-7 -1 5 o 396.64 410.45
-5 -1 5 o 188.33 177.77
-3 -1 5 o 1260.56 1133.18
-1 -1 5 o 196.37 220.04
1 -1 5 o 310.39 279.70
3 -1 5 o 781.82 928.01
5 -1 5 < 80.64 133.88
7 -1 5 o 499.45 578.48
-16 0 5 < 79.18 75.97
-14 0 5 < 15.11 13.71
-12 0 5 o 603.48 621.10
-10 0 5 o 622.73 534.29
-8 0 5 o 480.20 393.03
-6 0 5 o 1838.71 1580.01
-4 0 5 o 270.19 256.32
-2 0 5 o 455.60 466.04
0 0 5 o 1865.26 2038.28
2 0 5 o 165.91 163.21
4 0 5 o 826.41 912.90
6 0 5 o 509.93 586.29
-15 1 5 o 753.56 732.34
-13 1 5 o 372.76 346.41
-11 1 5 o 217.57 205.29
-9 1 5 o 1132.66 972.88
-7 1 5 o 363.50 277.98
-5 1 5 o 260.93 281.10
-3 1 5 o 1036.66 1116.18
-1 1 5 o 120.36 141.33
1 1 5 o 376.66 410.84
3 1 5 o 950.42 898.64
5 1 5 < 23.39 42.00
7 1 5 o 587.65 623.86
-16 2 5 o 144.96 109.95
-14 2 5 < 97.70 116.46
-12 2 5 o 579.85 521.75
-10 2 5 < 180.29 177.21
-8 2 5 o 189.30 193.55
-6 2 5 o 1726.64 1659.75
-4 2 5 < 135.22 250.43
-2 2 5 o 1003.53 1201.55
0 2 5 o 1212.08 1201.79
2 2 5 < 18.76 16.77
4 2 5 o 364.96 449.53
6 2 5 o 756.73 847.37
-13 3 5 o 322.57 292.69
-11 3 5 o 168.35 225.74
-9 3 5 o 1042.27 1074.30
-7 3 5 < 80.89 44.31
-5 3 5 o 291.39 324.75
-3 3 5 o 566.45 562.91
-1 3 5 o 168.84 172.30
1 3 5 o 450.97 470.14
3 3 5 o 800.09 862.34
5 3 5 < 0.00 9.68
-12 4 5 o 389.08 385.36
-10 4 5 o 116.46 111.38
-8 4 5 o 337.92 321.06
-6 4 5 o 968.20 961.03
-4 4 5 < 44.58 55.63
-2 4 5 o 717.50 720.98
0 4 5 o 919.47 957.25
2 4 5 < 10.48 0.21
-5 5 5 o 324.76 317.61
-6 0 6 < 34.11 42.04
-4 0 6 o 433.42 478.73

_cod_database_fobs_code 2242212
