#------------------------------------------------------------------------------
#$Date: 2020-11-26 01:43:29 +0200 (Thu, 26 Nov 2020) $
#$Revision: 259252 $
#$URL: file:///home/coder/svn-repositories/cod/cif/4/13/53/4135376.cif $
#------------------------------------------------------------------------------
#
# This file is available in the Crystallography Open Database (COD),
# http://www.crystallography.net/
#
# All data on this site have been placed in the public domain by the
# contributors.
#
data_4135376
loop_
_publ_author_name
'Peng, Guang'
'Lin, Chensheng'
'Ye, Ning'
_publ_section_title
;
 NaZnCO3(OH): A High-Performance Carbonate Ultraviolet Nonlinear Optical
 Crystal Derived from KBe2BO3F2
;
_journal_name_full               'Journal of the American Chemical Society'
_journal_paper_doi               10.1021/jacs.0c09866
_journal_year                    2020
_chemical_formula_sum            'C H F0 Na O4 Zn'
_chemical_formula_weight         165.38
_space_group_crystal_system      monoclinic
_space_group_IT_number           7
_space_group_name_Hall           'P -2yc'
_space_group_name_H-M_alt        'P 1 c 1'
_atom_sites_solution_hydrogens   difmap
_audit_creation_method           SHELXL-2016/6
_cell_angle_alpha                90
_cell_angle_beta                 96.880(4)
_cell_angle_gamma                90
_cell_formula_units_Z            2
_cell_length_a                   3.38230(10)
_cell_length_b                   5.4530(3)
_cell_length_c                   9.2505(4)
_cell_measurement_reflns_used    1419
_cell_measurement_temperature    293(2)
_cell_measurement_theta_max      59.0920
_cell_measurement_theta_min      4.2170
_cell_volume                     169.385(13)
_computing_cell_refinement       'CrysAlisPro 1.171.40.14a (Rigaku OD, 2018)'
_computing_data_collection       'CrysAlisPro 1.171.40.14a (Rigaku OD, 2018)'
_computing_data_reduction        'CrysAlisPro 1.171.40.14a (Rigaku OD, 2018)'
_computing_structure_refinement  'SHELXL-2016/6 (Sheldrick, 2016)'
_diffrn_ambient_temperature      293(2)
_diffrn_measured_fraction_theta_full 1.000
_diffrn_measured_fraction_theta_max 0.976
_diffrn_measurement_device_type  'ROD, Synergy Custom system, HyPix'
_diffrn_measurement_method       '\w scans'
_diffrn_radiation_type           GaK\a
_diffrn_radiation_wavelength     1.3405
_diffrn_reflns_av_R_equivalents  0.0169
_diffrn_reflns_av_unetI/netI     0.0162
_diffrn_reflns_Laue_measured_fraction_full 1.000
_diffrn_reflns_Laue_measured_fraction_max 0.976
_diffrn_reflns_limit_h_max       4
_diffrn_reflns_limit_h_min       -3
_diffrn_reflns_limit_k_max       6
_diffrn_reflns_limit_k_min       -6
_diffrn_reflns_limit_l_max       11
_diffrn_reflns_limit_l_min       -11
_diffrn_reflns_number            1457
_diffrn_reflns_point_group_measured_fraction_full 1.000
_diffrn_reflns_point_group_measured_fraction_max 0.976
_diffrn_reflns_theta_full        53.543
_diffrn_reflns_theta_max         59.123
_diffrn_reflns_theta_min         7.060
_exptl_absorpt_coefficient_mu    6.792
_exptl_absorpt_correction_T_max  1.00000
_exptl_absorpt_correction_T_min  0.67892
_exptl_absorpt_correction_type   multi-scan
_exptl_absorpt_process_details
;
CrysAlisPro 1.171.40.14a (Rigaku Oxford Diffraction, 2018)
Empirical absorption correction using spherical harmonics,
 implemented in SCALE3 ABSPACK scaling algorithm.
;
_exptl_crystal_colour            White
_exptl_crystal_density_diffrn    3.243
_exptl_crystal_density_method    'not measured'
_exptl_crystal_description       Plate
_exptl_crystal_F_000             160
_exptl_crystal_size_max          0.2000
_exptl_crystal_size_mid          0.2000
_exptl_crystal_size_min          0.1500
_refine_diff_density_max         0.435
_refine_diff_density_min         -0.517
_refine_diff_density_rms         0.089
_refine_ls_abs_structure_details
;
 Refined as an inversion twin.
;
_refine_ls_abs_structure_Flack   -0.07(7)
_refine_ls_extinction_method     none
_refine_ls_goodness_of_fit_ref   1.120
_refine_ls_hydrogen_treatment    refall
_refine_ls_matrix_type           full
_refine_ls_number_parameters     69
_refine_ls_number_reflns         537
_refine_ls_number_restraints     9
_refine_ls_restrained_S_all      1.133
_refine_ls_R_factor_all          0.0198
_refine_ls_R_factor_gt           0.0198
_refine_ls_shift/su_max          0.000
_refine_ls_shift/su_mean         0.000
_refine_ls_structure_factor_coef Fsqd
_refine_ls_weighting_details
'w=1/[\s^2^(Fo^2^)+(0.0361P)^2^+0.0352P] where P=(Fo^2^+2Fc^2^)/3'
_refine_ls_weighting_scheme      calc
_refine_ls_wR_factor_gt          0.0501
_refine_ls_wR_factor_ref         0.0501
_reflns_Friedel_coverage         0.983
_reflns_Friedel_fraction_full    1.000
_reflns_Friedel_fraction_max     0.975
_reflns_number_gt                535
_reflns_number_total             537
_reflns_threshold_expression     'I > 2\s(I)'
_cod_data_source_file            ja0c09866_si_002.cif
_cod_data_source_block           1
_cod_depositor_comments
;
The following automatic conversions were performed:

data item '_exptl_absorpt_correction_type' value 'Multi-scan' was
changed to 'multi-scan' in accordance with the
/home/data/users/saulius/crontab/automatic-downloads/rss-feeds/ACS/lib/dictionaries/cif_core.dic
dictionary named 'cif_core.dic' version 2.4.2 last updated on
2011-04-26.

Automatic conversion script
Id: cif_fix_values 7556 2019-12-06 15:28:31Z antanas 
;
_cod_original_sg_symbol_H-M      'P c'
_cod_database_code               4135376
_shelx_shelxl_version_number     2016/6
_shelx_space_group_comment
;
The symmetry employed for this shelxl refinement is uniquely defined
by the following loop, which should always be used as a source of
symmetry information in preference to the above space-group names.
They are only intended as comments.
;
_shelx_res_file
;

TITL 1 in Pc
    1.res
    created by SHELXL-2016/6 at 14:46:39 on 19-Jul-2020
CELL 1.34050   3.3823   5.4530   9.2505  90.000  96.880  90.000
ZERR    2.00   0.0001   0.0003   0.0004   0.000   0.004   0.000
LATT -1
SYMM X, -Y, 0.5+Z
SFAC C O NA ZN F H
UNIT 2 8 2 2 0 2

L.S. 500
BOND
FMAP 2
PLAN 20
ACTA
TWIN
DFIX 0.84 O4 H1
ISOR 0.002 O3
WGHT    0.036100    0.035200
BASF  -0.07040
FVAR       0.46008
ZN1   4    0.924508    0.335104    0.566260    11.00000    0.01249    0.01288 =
         0.01496    0.00101    0.00236    0.00072
NA1   3    1.367664    0.826480    0.448599    11.00000    0.02508    0.01668 =
         0.02380    0.00219   -0.00233   -0.00270
O1    2    0.949862    0.476057    0.364144    11.00000    0.02943    0.01313 =
         0.01229   -0.00318   -0.00033   -0.00256
O2    2    0.830359    0.079409    0.329096    11.00000    0.02394    0.01152 =
         0.01462    0.00153    0.00052   -0.00387
O3    2    0.901012    0.680449    0.638810    11.00000    0.02393    0.01425 =
         0.01108   -0.00166    0.00131   -0.00096
C1    1    0.892204    0.289875    0.277944    11.00000    0.01622    0.01445 =
         0.00926    0.00171    0.00030   -0.00018
O4    2    0.435476    0.182121    0.606053    11.00000    0.01510    0.01474 =
         0.01630    0.00552    0.00257   -0.00032
H1    6    0.483444    0.112218    0.685486    11.00000    0.02932
HKLF 4




REM  1 in Pc
REM R1 =  0.0198 for     535 Fo > 4sig(Fo)  and  0.0198 for all     537 data
REM     69 parameters refined using      9 restraints

END

WGHT      0.0361      0.0352

REM Highest difference peak  0.435,  deepest hole -0.517,  1-sigma level  0.089
Q1    1   0.6067  0.3181  0.5779  11.00000  0.05    0.44
Q2    1   0.2469  0.3272  0.5534  11.00000  0.05    0.44
Q3    1   0.5719  0.1291  0.3521  11.00000  0.05    0.26
Q4    1   0.6073  0.3384  0.6928  11.00000  0.05    0.25
Q5    1   0.7016  0.6742  0.6596  11.00000  0.05    0.24
Q6    1   0.5090  0.3452  0.4917  11.00000  0.05    0.23
Q7    1   0.6988  0.1171  0.5674  11.00000  0.05    0.23
Q8    1   1.2571  0.0894  0.3613  11.00000  0.05    0.22
Q9    1   0.1878  0.1192  0.5936  11.00000  0.05    0.21
Q10   1   0.4197  0.3245  0.2155  11.00000  0.05    0.21
Q11   1   0.4340  0.5087  0.2635  11.00000  0.05    0.21
Q12   1   1.2647  0.3537  0.4378  11.00000  0.05    0.20
Q13   1   0.9876 -0.1647  0.2977  11.00000  0.05    0.19
Q14   1   1.2772  0.6940  0.6228  11.00000  0.05    0.19
Q15   1   1.3966  0.4728  0.3566  11.00000  0.05    0.18
Q16   1   0.3602  0.3250  0.6461  11.00000  0.05    0.17
Q17   1   1.2099  0.4288  0.3256  11.00000  0.05    0.17
Q18   1   1.0521 -0.0012  0.4199  11.00000  0.05    0.17
Q19   1   0.4214  0.1317  0.2846  11.00000  0.05    0.17
Q20   1   1.2154  0.9052  0.3401  11.00000  0.05    0.16
;
_shelx_res_checksum              15921
_shelx_hkl_file
;
  -3   4   5   57.97    1.71
  -3   4   6   14.05    0.81
  -2   0  -1   -0.01    0.04
  -2   0   0  970.12    5.11
  -2   0   1    0.17    0.09
  -2   0   2  305.70    3.16
  -2   0   3    0.03    0.06
  -2   0   4  219.97    3.11
  -2   0   5    0.04    0.05
  -2   0   6   32.60    1.40
  -2   0  11    0.11    0.10
  -2   1  -3  301.32    3.52
  -2  -1  -3  280.02    3.84
  -2   1  -2   63.84    1.63
  -2  -1  -2   60.46    1.67
  -2   1  -1   99.83    2.00
  -2  -1  -1  100.05    1.97
  -2   1   0   82.47    1.83
  -2  -1   0   78.71    1.59
  -2  -1   1  135.43    1.99
  -2   1   1  139.74    2.12
  -2  -1   1  138.22    1.91
  -2  -1   2   23.75    0.76
  -2   1   2   22.92    0.93
  -2   1   3  212.26    3.05
  -2  -1   3  208.93    2.89
  -2   1   4   70.83    1.88
  -2  -1   4   67.40    1.77
  -2   1   5  259.13    3.90
  -2  -1   5  249.69    3.64
  -2   1   6   28.60    1.37
  -2  -1   6   26.51    1.25
  -2  -1  10   12.48    0.85
  -2   1  10   12.00    0.83
  -2  -2  -4   12.58    0.94
  -2   2  -4   12.22    0.86
  -2   2  -3   31.66    1.32
  -2  -2  -3   32.16    1.40
  -2  -2  -2   75.13    1.98
  -2   2  -2   71.68    1.98
  -2  -2  -1  131.18    2.36
  -2   2  -1  128.70    2.57
  -2   2   0  118.24    2.42
  -2  -2   0  112.76    2.10
  -2   2   1   96.59    2.09
  -2  -2   1  103.59    1.93
  -2   2   1  100.62    2.27
  -2   2   2  140.56    2.59
  -2  -2   2  143.46    2.20
  -2   2   3  165.60    3.04
  -2  -2   3  168.56    2.39
  -2   2   4   25.84    1.25
  -2  -2   4   23.45    1.14
  -2   2   5   46.07    1.78
  -2  -2   5   43.63    1.66
  -2   2   9   40.57    1.52
  -2   2  10    6.02    0.52
  -2  -2  10    6.11    0.53
  -2   3  -2  198.91    3.57
  -2  -3  -2  200.69    3.31
  -2  -3  -1    2.08    0.33
  -2   3  -1    1.61    0.33
  -2   3   0   56.72    1.86
  -2  -3   0   57.14    1.65
  -2  -3   1    6.68    0.55
  -2   3   1    6.11    0.60
  -2   3   2   77.32    2.21
  -2   3   2   79.02    2.17
  -2  -3   2   81.25    1.90
  -2   3   3    9.45    0.77
  -2  -3   3    9.65    0.68
  -2   3   3    9.51    0.81
  -2   3   4   96.30    2.45
  -2  -3   4   99.38    2.24
  -2   3   8   55.14    1.83
  -2   3   9    6.31    0.58
  -2   4   5   27.51    1.34
  -2   4   6   11.49    0.86
  -2   4   7   42.93    1.61
  -2   5   4   20.11    1.03
  -2   5   5   46.08    1.55
  -2   5   6    9.79    0.70
  -1   0  -4  615.67    3.69
  -1   0  -3   -0.01    0.03
  -1   0  -2  158.21    1.52
  -1   0  -1   -0.01    0.03
  -1   0  -1    0.09    0.03
  -1   0   0  656.80    2.51
  -1   0   1    0.17    0.04
  -1   0   1    0.06    0.05
  -1   0   2   23.12    0.67
  -1   0   2   20.35    0.35
  -1   0   3    0.01    0.04
  -1   0   3    0.00    0.02
  -1   0   4  669.63    2.87
  -1   0   5    0.11    0.08
  -1   0   6  189.24    2.87
  -1   0   7    0.02    0.06
  -1   0   8   37.68    1.50
  -1   0   9    0.12    0.11
  -1   0  10   69.39    2.10
  -1   0  11    0.02    0.07
  -1   1  -6   70.69    1.84
  -1   1  -5   76.71    1.74
  -1   1  -4   63.79    1.44
  -1   1  -3  105.79    1.68
  -1   1  -2  156.40    1.30
  -1   1  -2  158.81    1.98
  -1  -1  -1  279.75    2.44
  -1   1  -1  285.28    2.05
  -1   1  -1  281.52    2.54
  -1   1   0  419.52    2.62
  -1  -1   0  414.33    2.69
  -1   1   1  369.58    2.64
  -1  -1   1  364.41    2.30
  -1   1   2  153.95    1.87
  -1  -1   2  152.51    1.46
  -1  -1   3  157.52    1.59
  -1   1   3  164.21    2.13
  -1   1   4   47.94    1.27
  -1  -1   4   47.67    0.97
  -1  -1   5  131.59    2.32
  -1   1   5  124.46    2.24
  -1  -1   5  126.70    1.78
  -1  -1   6   39.46    1.37
  -1  -1   6   37.57    1.06
  -1   1   6   38.52    1.36
  -1  -1   7  161.56    2.95
  -1   1   7  166.22    3.02
  -1   1   8   10.80    0.82
  -1  -1   9   99.40    2.47
  -1   1   9  103.32    2.48
  -1  -1  10   29.79    1.35
  -1   1  10   30.37    1.36
  -1   1  11   31.60    1.30
  -1  -1  11   31.05    1.30
  -1   2  -6   17.85    1.05
  -1  -2  -6   17.38    1.09
  -1  -2  -5  220.12    3.55
  -1   2  -5  225.26    3.41
  -1   2  -4   69.49    1.76
  -1  -2  -4   68.43    1.79
  -1  -2  -3  281.27    3.29
  -1   2  -3  274.15    3.21
  -1   2  -2  179.33    2.12
  -1   2  -2  184.55    2.48
  -1  -2  -1  239.33    2.48
  -1   2  -1  245.09    2.73
  -1   2   0    1.86    0.23
  -1  -2   0    1.63    0.20
  -1  -2   0    1.21    0.14
  -1   2   1   75.87    1.50
  -1   2   1   80.46    1.50
  -1  -2   1   78.58    1.32
  -1   2   2  150.00    2.19
  -1  -2   2  148.19    1.82
  -1   2   3  377.72    3.78
  -1  -2   3  386.31    3.13
  -1  -2   4   50.72    1.22
  -1   2   4   52.47    1.48
  -1  -2   5  258.60    3.00
  -1   2   5  251.64    3.51
  -1  -2   6   31.46    1.16
  -1   2   6   29.32    1.29
  -1  -2   7  154.56    3.24
  -1   2   7  148.44    3.07
  -1  -2   7  149.80    2.65
  -1   2   8   44.11    1.47
  -1  -2   8   41.18    1.43
  -1   2   8   42.60    1.52
  -1   2   9   18.90    0.98
  -1  -2   9   18.73    1.00
  -1   2   9   20.56    1.03
  -1   2  10    7.57    0.63
  -1  -2  10    6.53    0.59
  -1   2  11   24.41    1.01
  -1  -2  11   22.41    0.98
  -1   3  -5    4.47    0.55
  -1  -3  -5    5.31    0.57
  -1  -3  -4   78.74    1.96
  -1   3  -4   73.95    2.07
  -1  -3  -3   16.64    0.83
  -1  -3  -2  297.29    3.22
  -1   3  -2  299.69    3.46
  -1   3  -2  300.55    3.60
  -1   3  -1    4.77    0.45
  -1   3  -1    4.46    0.42
  -1  -3  -1    4.01    0.34
  -1   3   0  612.26    4.91
  -1   3   0  580.95    4.66
  -1   3   1   15.64    0.82
  -1   3   1   14.43    0.71
  -1  -3   1   15.88    0.69
  -1   3   2  438.13    3.98
  -1   3   2  442.97    4.49
  -1  -3   2  448.61    3.78
  -1   3   3   17.48    0.80
  -1  -3   3   16.46    0.78
  -1  -3   4   83.22    1.84
  -1   3   4   83.89    2.16
  -1  -3   5   20.56    1.00
  -1   3   5   20.96    1.14
  -1   3   6  100.26    2.62
  -1  -3   6  106.34    2.41
  -1   3   7   13.19    0.88
  -1   3   8   66.87    1.97
  -1   3   9    3.07    0.42
  -1   4  -3  227.60    3.73
  -1  -4  -3  228.16    3.24
  -1  -4  -2   59.06    1.58
  -1   4  -2   56.66    1.76
  -1  -4  -1   34.30    1.17
  -1   4  -1   33.93    1.37
  -1  -4   0    8.50    0.58
  -1   4   0    8.79    0.64
  -1   4   0    9.75    0.75
  -1   4   1   59.29    1.84
  -1   4   1   56.08    1.56
  -1  -4   1   55.24    1.48
  -1   4   2   48.75    1.44
  -1   4   2   51.35    1.77
  -1   4   3  152.75    2.71
  -1  -4   3  152.23    2.71
  -1   4   4   26.64    1.20
  -1   4   5  142.46    2.90
  -1   4   6   21.61    1.14
  -1   4   7   56.17    1.85
  -1  -4   8   12.80    0.82
  -1   4   8   13.40    0.88
  -1   4   9   11.59    0.76
  -1   5  -7   41.34    1.34
  -1  -5  -7   48.79    1.70
  -1  -5  -6   11.64    0.89
  -1  -5  -5   24.34    1.28
  -1   5   0  158.31    2.67
  -1   5   3   78.54    2.03
  -1   5   4   27.78    1.26
  -1   5   5   14.53    0.93
  -1   5   6    2.95    0.43
  -1   5   7   49.68    1.64
  -1  -5   7   49.50    1.55
  -1   6  -5    0.12    0.09
  -1   6  -4   34.39    1.29
  -1   6  -3    0.54    0.19
  -1   6  -2   56.23    1.70
  -1   6  -1    1.77    0.31
  -1   6   4   38.74    1.36
  -1   6   5    0.55    0.17
  -1  -6   5    0.45    0.15
   0   0 -11    0.02    0.10
   0   0  -6   98.14    2.02
   0   0  -5    0.42    0.12
   0   0  -4  551.16    3.55
   0   0  -3    0.17    0.06
   0   0  -2  288.78    1.64
   0   0  -1    0.19    0.03
   0   0   1    0.02    0.01
   0   0   2  280.13    1.56
   0   0   3    0.12    0.05
   0   0   4  559.58    3.12
   0   0   5    0.07    0.05
   0   0   6  101.42    1.98
   0   0   6  100.26    1.97
   0   0   6   97.46    1.62
   0   0   7    0.28    0.13
   0   0   7    0.30    0.14
   0   0   8  114.10    2.58
   0   0   8  119.61    2.69
   0   0   9    0.24    0.15
   0   0  10   74.25    2.22
   0   0  11   -0.02    0.08
   0  -1 -11   19.37    1.05
   0   1 -11   21.47    1.10
   0   1  -8    3.31    0.51
   0   1  -7  121.87    2.73
   0   1  -6  104.30    2.23
   0   1  -5  429.16    3.80
   0   1  -4   88.56    1.56
   0   1  -3  652.16    3.58
   0   1  -2   93.19    1.17
   0  -1  -1  209.65    1.29
   0   1  -1  216.60    1.48
   0   1   0   82.53    0.95
   0   1   0   81.20    0.76
   0  -1   0   80.37    0.73
   0   1   1  210.85    1.55
   0  -1   1  206.39    0.82
   0  -1   2   92.30    1.03
   0   1   2   93.20    1.11
   0   1   3  687.88    3.23
   0  -1   3  665.42    3.32
   0   1   4   91.87    1.35
   0  -1   4   93.49    1.40
   0  -1   5  432.23    3.41
   0   1   5  408.42    3.17
   0  -1   6   98.06    1.94
   0   1   6   92.12    1.72
   0   1   6   89.26    1.64
   0  -1   6  102.27    1.99
   0   1   6   97.69    1.94
   0  -1   6   97.32    1.78
   0   1   6   99.33    1.93
   0  -1   7  124.49    2.43
   0  -1   7  125.29    2.48
   0   1   7  126.93    2.43
   0   1   7  127.10    2.47
   0   1   8    2.40    0.37
   0  -1   8    2.47    0.39
   0   1   9   37.97    1.54
   0  -1   9   38.05    1.56
   0  -1  10   34.50    1.48
   0   1  10   35.29    1.48
   0  -1  11   22.29    1.12
   0   1  11   22.36    1.11
   0  -2 -11   38.50    1.29
   0   2 -10    6.31    0.60
   0  -2 -10    6.33    0.60
   0   2  -7  188.61    3.70
   0   2  -6   98.11    2.40
   0  -2  -5   72.78    1.53
   0   2  -5   76.48    1.85
   0  -2  -4   11.62    0.54
   0  -2  -3  230.56    2.11
   0   2  -3  238.84    2.62
   0  -2  -2  350.95    2.27
   0   2  -2  340.56    2.80
   0   2  -1  210.76    1.92
   0  -2  -1  219.40    2.04
   0   2  -1  199.10    2.11
   0  -2  -1  219.23    1.67
   0  -2   0  238.08    1.79
   0   2   0  237.99    1.84
   0  -2   1  199.39    1.28
   0  -2   1  195.89    1.73
   0   2   1  207.55    1.59
   0   2   1  202.66    2.14
   0   2   1  198.17    0.70
   0  -2   1  199.87    0.75
   0   2   1  205.64    0.85
   0   2   2  334.09    2.82
   0   2   2  355.36    1.79
   0   2   2  345.93    1.99
   0  -2   2  342.80    1.79
   0  -2   2  350.16    2.54
   0  -2   2  345.12    1.23
   0   2   3  230.11    1.86
   0  -2   3  223.59    1.86
   0   2   4   11.35    0.58
   0   2   4   11.02    0.48
   0  -2   4   10.73    0.48
   0  -2   4   10.82    0.57
   0  -2   5   72.47    1.43
   0  -2   5   75.63    1.64
   0   2   5   72.53    1.57
   0  -2   5   74.98    1.49
   0   2   5   75.69    1.48
   0   2   5   75.95    1.68
   0  -2   6  110.05    1.99
   0  -2   6  108.33    2.00
   0   2   6  111.38    2.01
   0   2   6  108.05    2.14
   0  -2   6  108.43    2.15
   0  -2   6  108.62    2.01
   0   2   6  115.97    2.06
   0  -2   7  183.51    2.88
   0   2   7  200.30    2.96
   0  -2   7  182.23    3.15
   0  -2   7  185.22    2.92
   0   2   7  191.28    2.92
   0   2   7  188.57    2.98
   0   2   7  193.48    3.27
   0  -2   7  189.08    2.80
   0  -2   8   22.63    1.08
   0   2   8   23.97    1.10
   0   2   8   22.75    1.05
   0   2   9   75.98    2.03
   0  -2   9   74.33    2.03
   0  -2  10    6.87    0.62
   0   2  10    6.68    0.60
   0   2  11   37.46    1.28
   0  -2  11   36.31    1.27
   0  -3 -10   22.07    1.19
   0   3  -5    8.90    0.72
   0   3  -4  236.02    3.34
   0  -3  -4  228.34    2.40
   0  -3  -3   19.43    0.65
   0   3  -3   19.37    0.86
   0  -3  -3   19.95    0.87
   0  -3  -2  303.91    3.13
   0  -3  -2  303.62    2.51
   0   3  -2  307.76    3.13
   0   3  -1   23.21    0.78
   0   3  -1   21.06    0.85
   0  -3  -1   23.00    0.82
   0  -3  -1   22.59    0.67
   0  -3   0   70.34    1.23
   0  -3   0   71.95    1.45
   0   3   1   23.58    0.91
   0  -3   1   23.26    0.56
   0   3   1   22.84    0.65
   0  -3   1   23.02    0.75
   0   3   2  294.08    3.29
   0  -3   2  307.38    2.99
   0  -3   3   20.19    0.82
   0   3   3   19.89    0.88
   0   3   3   20.35    0.87
   0   3   4  220.99    3.04
   0   3   5    9.18    0.67
   0   3   5    9.74    0.68
   0  -3   6   73.31    2.00
   0   3   6   78.94    2.05
   0  -3   6   78.87    1.97
   0   3   7    6.99    0.63
   0  -3   7    6.56    0.60
   0  -3   8   53.09    1.69
   0   3   8   52.71    1.74
   0   3   9    7.17    0.62
   0  -4  -9   60.02    1.94
   0  -4  -8   35.51    1.61
   0   4  -7  110.30    2.40
   0  -4  -7  108.74    2.88
   0   4  -6   12.80    0.83
   0  -4  -4   17.55    0.99
   0   4  -4   17.73    1.02
   0   4  -3   63.63    1.78
   0  -4  -3   69.69    1.88
   0  -4  -3   66.83    1.83
   0  -4  -2   72.91    1.80
   0   4  -2   71.17    1.73
   0  -4  -2   71.71    1.39
   0   4  -1  129.10    2.23
   0   4  -1  122.81    2.08
   0  -4  -1  126.25    2.33
   0   4   0   58.21    1.46
   0  -4   0   55.66    1.31
   0  -4   1  116.02    2.00
   0   4   1  118.61    2.02
   0   4   1  118.17    2.12
   0   4   2   79.43    2.00
   0  -4   2   77.79    1.74
   0   4   2   80.36    1.83
   0   4   3   64.24    1.83
   0  -4   3   64.96    1.72
   0   4   3   66.93    1.78
   0   4   4   18.72    1.01
   0   4   4   18.59    1.00
   0  -4   4   18.38    0.99
   0   4   5   33.38    1.38
   0  -4   5   34.32    1.37
   0   4   6   14.39    0.94
   0  -4   6   14.79    0.93
   0   4   7  112.92    2.65
   0  -4   7  107.66    2.53
   0   4   8   32.05    1.37
   0  -4   8   31.05    1.32
   0  -4   9   57.37    1.64
   0   4   9   56.62    1.68
   0  -5  -8    2.46    0.39
   0  -5  -7   41.78    1.62
   0   5  -7   40.41    1.41
   0  -5  -6   11.49    0.88
   0   5  -6   11.07    0.78
   0  -5  -5   69.80    2.15
   0   5  -5   67.68    1.97
   0  -5  -4   43.16    1.60
   0  -5  -3  114.34    2.48
   0   5  -3  116.51    2.55
   0   5  -2    4.41    0.49
   0   5  -1   54.97    1.68
   0   5   0   42.83    1.44
   0   5   1   59.16    1.62
   0   5   2    5.55    0.55
   0   5   3  116.09    2.59
   0  -5   3  112.35    2.38
   0   5   4   50.38    1.77
   0  -5   4   47.74    1.60
   0  -5   5   71.69    2.00
   0   5   5   71.96    2.13
   0   5   6    9.57    0.77
   0  -5   6    9.45    0.73
   0  -5   7   39.62    1.44
   0   5   8    2.19    0.34
   0  -5   8    1.94    0.30
   0   6  -4   16.44    0.94
   0   6  -3    2.12    0.36
   0   6  -2   91.01    2.25
   0   6  -1   10.13    0.74
   0   6   0  123.85    2.48
   0  -6   2   85.25    1.92
   0   6   3    2.62    0.40
   0  -6   3    2.77    0.37
   0   6   4   19.50    1.05
   0  -6   4   18.54    0.93
   0   6   5    1.27    0.27
   0  -6   5    1.61    0.28
   0   6   6   34.64    1.31
   0  -6   6   32.71    1.15
   1   0 -11   -0.02    0.07
   1   0 -10   69.45    2.15
   1   0  -9   -0.02    0.08
   1   0  -8   64.07    1.96
   1   0  -7    0.04    0.08
   1   0  -7    0.04    0.06
   1   0  -6  212.54    3.21
   1   0  -6  191.95    2.88
   1   0  -5    0.01    0.06
   1   0  -5    0.01    0.05
   1   0  -5    0.05    0.04
   1   0  -4  623.94    4.41
   1   0  -4  652.64    3.40
   1   0  -3    0.41    0.11
   1   0  -3    0.02    0.03
   1   0  -2   14.09    0.29
   1   0  -2   14.12    0.51
   1   0  -2   14.13    0.43
   1   0  -1    0.05    0.04
   1   0  -1    0.01    0.04
   1   0  -1    0.02    0.03
   1   0   0  622.85    3.52
   1   0   0  656.72    3.06
   1   0   1   -0.01    0.03
   1   0   1   -0.01    0.04
   1   0   1    0.04    0.04
   1   0   2  163.09    2.04
   1   0   2  165.99    1.90
   1   0   3    0.05    0.06
   1   0   3    0.03    0.05
   1   0   4  591.58    4.52
   1   0   4  586.82    4.90
   1   0   5   -0.02    0.05
   1   0   5    0.12    0.07
   1   0   5    0.02    0.05
   1   0   5    0.02    0.05
   1   0   6   90.42    2.17
   1   0   6   94.39    2.47
   1   0   6   94.49    2.26
   1   0   7    0.03    0.07
   1   0   7    0.19    0.14
   1   0   8   24.35    1.33
   1   0   9    0.08    0.10
   1   0  10   54.96    1.96
   1   0  11   -0.02    0.08
   1  -1 -11   31.65    1.32
   1   1 -11   32.99    1.34
   1  -1 -10   30.94    1.40
   1   1 -10   30.96    1.39
   1   1  -9  100.90    2.51
   1  -1  -9  104.42    2.58
   1  -1  -8   11.51    0.83
   1   1  -8   11.14    0.81
   1   1  -7  167.77    3.12
   1  -1  -7  161.19    2.86
   1   1  -7  164.42    2.85
   1  -1  -6   38.20    1.28
   1   1  -6   36.95    1.26
   1  -1  -6   39.22    1.37
   1   1  -6   39.07    1.36
   1  -1  -5  130.18    2.11
   1   1  -5  132.06    2.11
   1   1  -4   46.79    1.18
   1  -1  -4   52.32    1.26
   1  -1  -3  168.82    1.96
   1   1  -3  167.73    1.94
   1  -1  -3  162.16    1.92
   1   1  -3  159.97    1.22
   1   1  -2  154.43    1.64
   1   1  -2  153.79    1.24
   1  -1  -2  155.66    1.66
   1   1  -1  380.54    2.08
   1  -1  -1  387.95    2.54
   1   1  -1  381.48    2.47
   1  -1  -1  380.13    2.46
   1  -1   0  427.53    2.84
   1   1   0  415.90    2.85
   1  -1   1  278.20    2.44
   1   1   1  277.14    2.42
   1  -1   1  271.82    2.24
   1  -1   2  157.19    2.00
   1   1   2  153.40    1.98
   1  -1   2  158.60    1.81
   1   1   2  155.15    1.81
   1   1   3   96.05    1.73
   1  -1   3  102.30    1.65
   1   1   3  102.73    1.65
   1  -1   3   93.96    1.72
   1  -1   4   64.85    1.59
   1  -1   4   69.50    1.52
   1   1   4   68.92    1.51
   1   1   4   65.35    1.60
   1  -1   4   67.83    1.38
   1  -1   5   73.45    1.73
   1   1   5   74.53    1.74
   1  -1   5   73.71    1.56
   1  -1   5   78.35    1.80
   1   1   5   77.43    1.80
   1  -1   5   73.47    1.94
   1   1   5   77.72    1.99
   1  -1   6   71.93    1.93
   1   1   6   72.19    1.90
   1  -1   6   73.04    1.67
   1  -1   6   75.01    2.18
   1   1   6   75.72    1.96
   1  -1   6   73.84    1.97
   1   1   6   71.66    2.13
   1  -1   7  214.99    3.60
   1   1   7  221.65    3.62
   1  -1   7  202.06    3.88
   1   1   7  203.72    3.86
   1   1   7  221.31    3.69
   1  -1   7  206.81    2.93
   1  -1   7  217.82    3.68
   1  -1   8    4.20    0.55
   1   1   8    3.58    0.51
   1  -1   9   80.88    2.40
   1   1   9   83.26    2.42
   1  -1  10   27.63    1.35
   1   1  10   28.71    1.36
   1  -2 -11   23.09    1.00
   1   2 -10    7.30    0.63
   1  -2 -10    6.98    0.62
   1   2  -9   17.52    0.98
   1  -2  -9   15.96    0.94
   1  -2  -9   16.87    1.05
   1   2  -8   45.25    1.53
   1  -2  -8   48.96    1.61
   1  -2  -8   46.38    1.75
   1   2  -7  144.92    2.58
   1  -2  -7  145.35    2.61
   1  -2  -7  145.69    2.70
   1   2  -7  142.96    2.69
   1  -2  -7  143.75    3.03
   1  -2  -7  141.70    2.79
   1   2  -6   28.08    1.04
   1  -2  -6   28.33    1.06
   1  -2  -6   29.44    1.20
   1  -2  -6   29.50    1.31
   1  -2  -6   29.88    1.13
   1   2  -6   28.33    1.40
   1   2  -6   30.63    1.13
   1   2  -5  248.11    3.70
   1   2  -5  242.09    2.78
   1  -2  -5  248.21    2.82
   1  -2  -5  256.37    2.97
   1  -2  -5  241.40    3.14
   1   2  -5  242.27    2.81
   1   2  -5  257.72    2.97
   1  -2  -5  246.42    3.53
   1  -2  -4   56.94    1.27
   1   2  -4   57.87    1.28
   1   2  -4   52.42    1.55
   1  -2  -4   54.25    1.37
   1  -2  -4   53.45    1.53
   1  -2  -3  396.40    3.46
   1  -2  -3  391.30    2.87
   1  -2  -2  141.36    1.56
   1   2  -2  136.01    1.53
   1   2  -2  141.05    1.99
   1  -2  -2  142.70    1.96
   1  -2  -1   77.65    1.08
   1   2  -1   80.54    1.10
   1  -2  -1   73.78    1.33
   1  -2  -1   71.49    0.70
   1   2  -1   76.03    1.23
   1  -2   0    1.61    0.17
   1   2   0    1.65    0.18
   1  -2   0    1.80    0.15
   1  -2   1  256.82    2.28
   1   2   1  250.16    2.28
   1  -2   1  249.98    2.40
   1  -2   2  175.90    2.08
   1   2   2  181.94    2.11
   1  -2   2  181.76    2.10
   1   2   3  274.17    3.19
   1  -2   3  275.29    2.91
   1  -2   3  287.01    2.68
   1   2   3  280.65    2.95
   1  -2   3  288.13    2.69
   1   2   3  287.25    2.70
   1  -2   4   65.08    1.44
   1   2   4   65.84    1.44
   1  -2   4   64.52    1.57
   1   2   4   64.22    1.57
   1   2   4   64.56    1.65
   1  -2   4   68.74    1.60
   1  -2   4   68.56    1.50
   1   2   4   65.60    1.46
   1   2   5  231.73    3.04
   1  -2   5  218.11    2.92
   1   2   5  225.03    2.98
   1  -2   5  220.19    3.24
   1   2   5  223.70    3.29
   1   2   5  219.74    3.23
   1  -2   5  224.24    3.10
   1  -2   5  227.03    3.03
   1  -2   6   20.10    0.98
   1   2   6   19.62    0.97
   1   2   6   20.66    1.01
   1  -2   6   18.93    1.05
   1   2   6   18.85    1.05
   1  -2   6   19.28    0.96
   1  -2   6   20.91    1.01
   1   2   6   19.62    1.01
   1  -2   7   70.17    1.97
   1   2   7   66.83    1.91
   1  -2   7   68.36    1.89
   1  -2   8   12.65    0.88
   1   2   8   13.20    0.90
   1  -2   8   11.52    0.79
   1  -2   9   43.51    1.61
   1   2   9   43.33    1.59
   1  -2  10   10.68    0.74
   1   2  10   11.33    0.76
   1  -3 -10   25.53    1.17
   1  -3  -9    2.97    0.45
   1  -3  -8   72.82    2.26
   1  -3  -7   14.40    1.02
   1  -3  -6   89.58    2.25
   1   3  -6   87.43    2.02
   1   3  -6   81.68    2.54
   1  -3  -6   90.10    2.44
   1  -3  -5   20.12    1.02
   1   3  -5   20.15    0.97
   1   3  -5   18.05    1.10
   1  -3  -4   81.81    1.94
   1   3  -4   82.81    1.92
   1  -3  -4   82.23    2.11
   1   3  -3   15.49    0.85
   1  -3  -3   18.56    0.88
   1   3  -3   19.09    0.89
   1  -3  -3   17.84    0.92
   1  -3  -3   16.92    0.84
   1  -3  -2  443.90    4.21
   1  -3  -2  451.78    4.32
   1  -3  -2  445.04    4.00
   1  -3  -1   15.59    0.71
   1   3  -1   15.59    0.76
   1   3  -1   14.47    0.74
   1  -3  -1   14.85    0.76
   1   3   0  580.93    4.57
   1   3   0  581.38    4.76
   1  -3   0  579.61    3.50
   1  -3   0  580.95    4.23
   1  -3   0  570.07    4.51
   1  -3   1    4.00    0.33
   1   3   1    4.51    0.40
   1   3   1    4.97    0.45
   1  -3   1    4.47    0.38
   1  -3   1    5.22    0.39
   1  -3   1    4.69    0.41
   1  -3   2  308.23    3.17
   1   3   2  304.72    3.23
   1   3   2  305.75    3.72
   1  -3   2  299.81    3.38
   1  -3   2  303.08    2.94
   1  -3   2  308.13    3.28
   1  -3   3   16.63    0.82
   1  -3   3   16.25    0.84
   1   3   4   79.26    2.10
   1   3   5    5.24    0.58
   1  -3   5    4.62    0.51
   1   3   6  137.84    3.00
   1  -3   6  127.95    2.78
   1   3   7    7.87    0.73
   1  -3   7    6.83    0.66
   1   3   8   61.24    1.93
   1  -3   8   64.62    1.94
   1  -3   9    0.93    0.23
   1  -4  -9   10.28    0.78
   1  -4  -8   14.03    0.97
   1   4  -7   57.05    1.72
   1   4  -6   21.41    1.10
   1  -4  -6   23.66    1.30
   1   4  -5  148.88    2.92
   1  -4  -5  146.49    3.12
   1   4  -4   26.55    1.23
   1  -4  -4   24.95    1.24
   1  -4  -3  148.37    2.86
   1   4  -3  157.08    2.94
   1  -4  -3  154.05    2.76
   1  -4  -3  153.44    2.93
   1   4  -2   51.08    1.63
   1  -4  -2   48.43    1.47
   1  -4  -2   53.42    1.67
   1   4  -1   60.06    1.73
   1  -4  -1   59.94    1.55
   1  -4  -1   60.70    1.71
   1   4   0    9.24    0.67
   1   4   0    8.31    0.66
   1  -4   0    8.56    0.63
   1   4   1   35.45    1.28
   1   4   1   34.22    1.36
   1  -4   1   37.51    1.23
   1   4   2   65.25    1.95
   1  -4   2   65.27    1.75
   1   4   3  236.01    3.85
   1  -4   3  242.22    3.59
   1   4   4   38.91    1.61
   1  -4   4   41.26    1.56
   1   4   5   77.76    2.34
   1   4   6    5.72    0.66
   1  -4   6    6.44    0.66
   1   4   7   47.12    1.81
   1  -4   7   47.14    1.72
   1   4   8   14.11    0.92
   1  -4   8   14.39    0.89
   1   5  -7   46.47    1.49
   1  -5  -7   45.21    1.64
   1   5  -6    2.19    0.37
   1  -5  -6    2.36    0.40
   1   5  -5   15.21    0.96
   1  -5  -5   14.45    0.97
   1   5  -4   24.68    1.25
   1  -5  -4   24.03    1.24
   1  -5  -3   84.59    2.26
   1   5  -2   18.25    1.07
   1  -5  -2   12.88    0.86
   1   5  -1   59.83    1.89
   1  -5  -1   56.21    1.73
   1   5   0  149.48    2.92
   1   5   0  149.11    3.03
   1   5   1   47.93    1.62
   1   5   1   51.22    1.82
   1   5   2    6.59    0.67
   1  -5   2    5.96    0.56
   1   5   3   38.95    1.67
   1  -5   3   38.04    1.45
   1   5   4   21.50    1.26
   1  -5   4   23.53    1.17
   1   5   5   24.44    1.33
   1  -5   5   24.97    1.22
   1   5   6   11.45    0.88
   1  -5   6   11.19    0.80
   1   5   7   45.16    1.61
   1  -5   7   44.50    1.47
   1  -6  -5    0.51    0.17
   1   6  -5    0.53    0.18
   1  -6  -4   33.99    1.30
   1   6  -3    2.41    0.38
   1   6  -2   35.25    1.42
   1   6  -1    3.40    0.46
   1   6   0   20.36    1.05
   1   6   2   55.46    1.83
   1   6   3    0.81    0.24
   1  -6   3    0.60    0.17
   1   6   4   35.42    1.46
   1  -6   4   36.42    1.23
   1   6   5    0.89    0.24
   2   0 -11    0.02    0.08
   2   0 -11    0.05    0.09
   2   0 -10   77.71    2.22
   2   0 -10   74.06    2.36
   2   0  -9   -0.03    0.10
   2   0  -9   -0.03    0.11
   2   0  -8   53.48    1.94
   2   0  -8   48.64    2.02
   2   0  -7    0.05    0.08
   2   0  -7    0.06    0.09
   2   0  -6   31.57    1.36
   2   0  -6   31.42    1.48
   2   0  -6   31.13    1.42
   2   0  -5   -0.02    0.07
   2   0  -5    0.02    0.10
   2   0  -5    0.02    0.07
   2   0  -4  211.66    3.08
   2   0  -4  209.32    3.31
   2   0  -4  211.77    3.21
   2   0  -4  214.32    2.63
   2   0  -3    0.02    0.09
   2   0  -3    0.02    0.08
   2   0  -3   -0.02    0.04
   2   0  -2  299.40    3.29
   2   0  -2  297.62    3.37
   2   0  -2  308.42    3.50
   2   0  -2  299.24    3.03
   2   0  -1    0.37    0.14
   2   0  -1    0.56    0.17
   2   0  -1    0.35    0.15
   2   0  -1    0.15    0.11
   2   0  -1    0.43    0.15
   2   0   0  996.98    6.50
   2   0   0  972.67    5.75
   2   0   0  980.52    5.73
   2   0   0  972.09    6.27
   2   0   0  998.09    5.07
   2   0   0  988.83    5.13
   2   0   0 1000.00    6.00
   2   0   1    0.01    0.06
   2   0   1   -0.01    0.08
   2   0   1    0.05    0.08
   2   0   1    0.10    0.07
   2   0   1    0.11    0.09
   2   0   1   -0.02    0.10
   2   0   2  126.83    2.35
   2   0   2  119.78    2.48
   2   0   2  122.94    2.36
   2   0   2  122.01    1.98
   2   0   3    0.02    0.07
   2   0   3    0.07    0.08
   2   0   3    0.02    0.07
   2   0   3   -0.03    0.06
   2   0   3   -0.02    0.06
   2   0   4  148.85    2.94
   2   0   4  142.90    3.11
   2   0   4  148.87    2.43
   2   0   5    0.03    0.10
   2   0   5    0.02    0.07
   2   0   6  123.11    3.06
   2   0   6  124.49    2.40
   2   0   7    0.61    0.24
   2   0   7    0.02    0.07
   2   0   8   35.54    1.69
   2   0   9   -0.03    0.09
   2   1 -10   11.77    0.84
   2  -1 -10   12.04    0.86
   2  -1 -10   12.33    0.93
   2   1 -10   11.13    0.88
   2   1  -9   20.15    1.15
   2  -1  -9   19.03    1.13
   2  -1  -9   18.31    1.20
   2   1  -9   18.57    1.21
   2   1  -8   14.29    0.98
   2  -1  -8   15.44    1.02
   2  -1  -8   14.41    1.08
   2   1  -8   13.26    1.02
   2   1  -7  102.11    2.53
   2  -1  -7  104.91    2.57
   2  -1  -7   99.68    2.75
   2   1  -7  102.38    2.74
   2   1  -6   27.02    1.23
   2  -1  -6   29.31    1.30
   2  -1  -6   27.84    1.38
   2   1  -6   28.05    1.36
   2  -1  -6   29.68    1.37
   2   1  -6   28.93    1.33
   2   1  -5  263.81    3.62
   2  -1  -5  265.65    3.66
   2  -1  -5  269.18    4.01
   2   1  -5  267.21    3.92
   2  -1  -5  276.16    3.90
   2   1  -5  271.55    3.83
   2  -1  -5  267.58    3.53
   2  -1  -5  271.09    3.38
   2   1  -4   67.38    1.69
   2  -1  -4   68.79    1.74
   2  -1  -4   69.98    1.82
   2   1  -4   67.61    1.77
   2  -1  -4   68.17    1.88
   2   1  -4   68.93    1.86
   2  -1  -4   71.22    1.78
   2  -1  -4   69.05    1.64
   2   1  -3  206.85    2.81
   2  -1  -3  204.80    2.84
   2  -1  -3  201.13    2.90
   2   1  -3  212.86    2.93
   2   1  -3  202.07    2.40
   2  -1  -3  196.18    2.99
   2   1  -3  198.73    2.94
   2  -1  -3  210.45    2.90
   2  -1  -3  207.77    2.74
   2  -1  -2   19.43    0.85
   2   1  -2   20.70    0.85
   2  -1  -2   19.73    0.85
   2   1  -2   19.00    0.83
   2   1  -2   18.28    0.74
   2  -1  -2   19.07    0.87
   2   1  -2   19.83    0.88
   2   1  -2   18.68    0.71
   2  -1  -2   19.79    0.87
   2  -1  -2   19.52    0.82
   2   1  -1  145.54    2.19
   2  -1  -1  143.60    2.21
   2   1  -1  140.54    2.03
   2  -1  -1  143.13    2.40
   2   1  -1  142.31    2.40
   2   1  -1  137.15    1.98
   2  -1  -1  144.32    2.31
   2   1  -1  143.99    2.28
   2  -1  -1  139.93    2.27
   2  -1  -1  143.77    2.48
   2   1  -1  140.54    2.48
   2  -1  -1  138.82    2.16
   2  -1   0   80.99    1.66
   2  -1   0   76.91    1.83
   2   1   0   79.25    1.86
   2   1   0   79.16    1.60
   2  -1   0   80.56    1.65
   2  -1   0   82.71    1.82
   2   1   0   84.16    1.84
   2   1   0   78.21    1.55
   2  -1   0   89.16    1.56
   2  -1   0   76.72    1.68
   2  -1   0   79.47    1.69
   2   1   0   81.53    1.69
   2   1   1  101.97    1.85
   2  -1   1  102.01    2.16
   2  -1   1  100.62    1.85
   2   1   1   96.35    2.11
   2  -1   1  101.79    2.05
   2   1   1  100.71    2.04
   2   1   1   98.44    1.76
   2   1   1  101.03    2.09
   2  -1   1   96.46    1.74
   2  -1   1   95.14    1.93
   2  -1   1  101.34    1.95
   2   1   1  104.00    1.96
   2  -1   2   61.16    1.55
   2   1   2   63.74    1.52
   2  -1   2   65.84    1.56
   2  -1   2   61.94    1.65
   2   1   2   63.05    1.63
   2  -1   2   58.63    1.72
   2   1   2   59.97    1.75
   2  -1   2   65.29    1.71
   2   1   2   62.08    1.66
   2   1   2   59.95    1.41
   2   1   2   61.94    1.67
   2  -1   2   63.15    1.50
   2  -1   2   60.84    1.58
   2   1   2   59.87    1.42
   2   1   3  306.74    3.60
   2  -1   3  296.65    3.62
   2  -1   3  304.66    3.89
   2   1   3  299.48    3.83
   2  -1   3  299.53    3.85
   2   1   3  295.55    3.83
   2  -1   3  289.22    4.05
   2   1   3  293.45    4.10
   2   1   3  289.29    3.21
   2   1   3  292.57    3.70
   2   1   3  292.67    3.28
   2  -1   4   45.70    1.61
   2   1   4   42.14    1.54
   2  -1   4   42.73    1.56
   2   1   4   43.17    1.55
   2  -1   4   42.38    1.67
   2   1   4   42.80    1.68
   2   1   4   42.61    1.44
   2  -1   4   43.63    1.41
   2   1   4   41.52    1.28
   2  -1   5   97.81    2.52
   2   1   5   91.59    2.43
   2  -1   5   81.27    2.48
   2   1   5   90.96    2.63
   2  -1   5   85.91    2.07
   2   1   5   85.22    1.91
   2  -1   6   42.37    1.76
   2   1   6   40.73    1.72
   2  -1   6   39.91    1.45
   2   1   6   40.35    1.33
   2  -1   7   43.22    1.83
   2   1   7   46.68    1.88
   2  -1   7   43.29    1.50
   2  -1   8    0.93    0.27
   2   1   8    0.72    0.25
   2  -1   8    0.72    0.20
   2  -1   9   23.52    1.24
   2   1   9   22.75    1.21
   2  -2 -10    5.75    0.53
   2  -2 -10    4.85    0.53
   2   2 -10    5.04    0.53
   2   2  -9   40.78    1.47
   2  -2  -9   43.71    1.55
   2  -2  -9   41.46    1.63
   2   2  -9   41.47    1.61
   2   2  -8   20.09    1.07
   2  -2  -8   19.10    1.06
   2  -2  -8   19.65    1.16
   2   2  -8   19.46    1.14
   2   2  -7   91.90    2.25
   2  -2  -7   91.40    2.27
   2  -2  -7   91.80    2.47
   2   2  -7   93.95    2.45
   2  -2  -7   87.07    2.32
   2   2  -6   39.09    1.40
   2  -2  -6   38.96    1.42
   2  -2  -6   39.04    1.54
   2   2  -6   38.79    1.51
   2  -2  -6   37.58    1.52
   2   2  -5   46.63    1.45
   2  -2  -5   47.26    1.48
   2  -2  -5   47.87    1.54
   2   2  -5   45.50    1.49
   2  -2  -5   49.83    1.65
   2   2  -5   47.59    1.58
   2  -2  -5   44.50    1.66
   2  -2  -5   45.95    1.65
   2   2  -4   27.54    1.05
   2  -2  -4   25.22    1.03
   2  -2  -4   25.44    1.06
   2   2  -4   25.13    1.04
   2   2  -4   25.85    1.04
   2  -2  -4   25.59    1.11
   2   2  -4   25.42    1.08
   2  -2  -4   26.81    1.23
   2  -2  -4   25.69    1.19
   2   2  -3  171.48    2.50
   2  -2  -3  163.31    2.47
   2  -2  -3  163.78    2.50
   2   2  -3  167.45    2.53
   2   2  -3  167.28    2.65
   2  -2  -3  170.39    2.64
   2   2  -3  171.54    2.61
   2  -2  -3  177.50    3.09
   2  -2  -3  174.36    3.00
   2   2  -2  134.90    2.10
   2  -2  -2  132.81    2.12
   2   2  -2  136.50    2.38
   2  -2  -2  133.08    2.21
   2   2  -2  134.93    2.20
   2  -2  -2  135.88    2.56
   2  -2  -2  135.71    2.53
   2   2  -1  100.37    1.77
   2  -2  -1  103.84    1.81
   2   2  -1   99.90    2.03
   2  -2  -1   98.92    1.84
   2  -2  -1  101.60    2.15
   2   2  -1   98.85    1.82
   2   2   0  110.96    1.83
   2  -2   0  111.18    1.86
   2  -2   0  112.18    2.10
   2   2   0  111.08    2.08
   2   2   0  112.19    2.47
   2  -2   0  109.00    1.86
   2  -2   0  111.10    2.23
   2  -2   0  108.27    1.94
   2   2   0  106.90    1.90
   2  -2   0  112.49    2.21
   2  -2   0  111.06    2.15
   2   2   0  108.73    2.14
   2  -2   1  117.69    2.28
   2  -2   1  115.95    2.07
   2   2   1  115.39    2.04
   2  -2   1  115.79    2.26
   2   2   1  111.08    2.21
   2   2   1  115.35    1.90
   2  -2   1  118.94    1.97
   2  -2   1  122.54    2.22
   2   2   1  115.86    2.17
   2   2   1  121.69    2.23
   2  -2   1  115.24    2.09
   2  -2   1  114.14    2.27
   2  -2   2   71.95    1.82
   2   2   2   71.58    1.59
   2  -2   2   70.28    1.61
   2  -2   2   66.14    1.79
   2  -2   2   66.72    1.66
   2   2   2   66.85    1.78
   2   2   2   68.97    1.68
   2  -2   2   74.29    1.79
   2   2   2   67.92    1.70
   2   2   2   72.85    1.73
   2   2   2   70.34    2.05
   2  -2   2   73.16    1.76
   2  -2   2   71.31    1.83
   2  -2   3   26.36    1.15
   2  -2   3   24.83    1.15
   2   2   3   24.66    1.15
   2  -2   3   24.48    1.09
   2   2   3   24.26    1.06
   2  -2   3   26.40    1.12
   2   2   3   26.53    1.11
   2   2   3   26.29    1.05
   2   2   3   25.96    1.27
   2  -2   3   26.75    1.14
   2  -2   4   12.43    0.80
   2   2   4   11.31    0.78
   2  -2   4   11.27    0.84
   2   2   4   11.51    0.85
   2  -2   4   11.77    0.80
   2   2   4   10.58    0.68
   2   2   4   12.21    0.90
   2  -2   5   76.04    2.10
   2   2   5   75.38    2.09
   2   2   5   72.62    2.23
   2  -2   5   76.45    2.12
   2  -2   6   44.04    1.66
   2   2   6   43.75    1.66
   2  -2   6   41.26    1.59
   2  -2   7   83.29    2.30
   2   2   7   84.09    2.31
   2  -2   7   81.71    2.19
   2  -2   8    7.35    0.67
   2   2   8    6.36    0.62
   2  -2   8    6.43    0.58
   2  -3  -8   63.53    2.02
   2  -3  -7    7.28    0.74
   2  -3  -6   68.25    2.24
   2   3  -5    5.32    0.55
   2  -3  -5    6.28    0.69
   2   3  -4   91.31    2.28
   2  -3  -4   93.13    2.54
   2   3  -3    9.78    0.76
   2  -3  -3   10.82    0.85
   2   3  -2   75.70    2.08
   2  -3  -2   77.68    2.16
   2  -3  -2   76.53    2.16
   2   3  -1    6.85    0.68
   2  -3  -1    6.21    0.59
   2  -3  -1    7.59    0.66
   2   3   0   57.50    1.76
   2   3   0   52.96    1.89
   2  -3   0   55.92    1.74
   2  -3   0   55.87    1.76
   2   3   1    1.63    0.30
   2   3   1    1.41    0.33
   2  -3   1    1.48    0.27
   2  -3   1    1.20    0.26
   2  -3   1    1.59    0.30
   2  -3   2  192.18    3.23
   2   3   2  190.34    3.15
   2  -3   2  191.91    3.14
   2  -3   2  187.87    3.12
   2  -3   3    0.65    0.20
   2   3   3    0.94    0.23
   2   3   3    0.74    0.27
   2  -3   3    0.71    0.22
   2   3   4  126.97    2.48
   2   3   4  129.46    3.26
   2  -3   4  136.84    2.96
   2   3   5    0.74    0.27
   2   3   6   22.06    1.31
   2  -3   6   21.92    1.21
   2  -3   7    0.77    0.23
   2  -3   8   14.30    0.84
   2  -4  -8   11.56    0.82
   2  -4  -7   47.87    1.79
   2   4  -6   10.67    0.78
   2  -4  -6   13.76    1.01
   2   4  -5   31.67    1.42
   2   4  -4    6.93    0.69
   2  -4  -4    7.83    0.77
   2   4  -3   56.80    1.98
   2  -4  -3   60.38    2.09
   2  -4  -2   69.60    2.19
   2   4  -1   95.44    2.54
   2  -4  -1   96.01    2.51
   2   4   0   21.49    1.18
   2   4   0   21.94    1.31
   2  -4   0   22.45    1.18
   2  -4   1   25.01    1.22
   2   4   1   22.48    1.19
   2   4   1   22.44    1.36
   2  -4   2   28.98    1.29
   2   4   2   28.49    1.30
   2   4   2   27.38    1.53
   2  -4   2   28.63    1.26
   2  -4   3   31.54    1.32
   2   4   3   32.94    1.34
   2  -4   3   32.43    1.41
   2   4   4   12.12    1.04
   2  -4   4   13.32    0.93
   2   4   5   10.67    0.95
   2  -4   5   10.51    0.83
   2   4   6    9.03    0.83
   2  -4   6    9.11    0.75
   2  -4   7   77.07    1.96
   2   5  -6    9.75    0.68
   2  -5  -6   10.45    0.78
   2   5  -5   42.29    1.54
   2  -5  -5   47.06    1.71
   2   5  -4   19.85    1.12
   2  -5  -4   18.85    1.11
   2   5  -3   63.20    2.05
   2  -5  -3   63.54    2.02
   2  -5  -2    0.26    0.15
   2   5  -2    0.54    0.21
   2   5  -1   18.33    1.11
   2  -5  -1   18.31    1.05
   2   5   0   18.57    1.09
   2   5   0   17.48    1.15
   2  -5   0   18.40    1.02
   2   5   1   54.85    1.80
   2   5   1   50.66    2.00
   2   5   2    9.47    0.73
   2   5   2    8.29    0.82
   2   5   3   53.22    2.04
   2  -5   3   52.70    1.60
   2   5   4   21.83    1.28
   2  -5   4   21.49    1.03
   2   5   5   33.64    1.48
   2  -5   5   34.07    1.25
   2   6  -2   55.19    1.64
   2  -6  -2   51.95    1.46
   2   6  -1    5.15    0.51
   2   6   0   76.98    1.87
   3   0  -9   -0.02    0.09
   3   0  -9    0.13    0.14
   3   0  -8   35.67    1.60
   3   0  -8   32.83    1.60
   3   0  -7    0.17    0.17
   3   0  -7    0.10    0.13
   3   0  -6   81.85    2.53
   3   0  -6   78.18    2.57
   3   0  -5    0.03    0.11
   3   0  -5   -0.03    0.11
   3   0  -4  110.16    2.78
   3   0  -4  110.69    2.87
   3   0  -3    0.02    0.09
   3   0  -3    0.03    0.09
   3   0  -2   14.11    0.93
   3   0  -2   13.96    0.97
   3   0  -1    0.04    0.10
   3   0  -1    0.02    0.12
   3   0   0  101.36    2.36
   3   0   0   95.87    2.59
   3   0   0  101.59    2.48
   3   0   1   -0.04    0.11
   3   0   1    0.05    0.11
   3   0   2  110.26    2.55
   3   0   2  117.40    2.79
   3   0   2  109.62    2.87
   3   0   2  116.36    2.50
   3   0   3    0.05    0.11
   3   0   3   -0.09    0.18
   3   0   3    0.21    0.13
   3   0   4   86.09    2.67
   3   0   4   87.95    2.58
   3   0   5   -0.06    0.18
   3   0   5    0.13    0.10
   3   0   6   22.81    1.34
   3   0   7   -0.05    0.16
   3   1  -9   33.47    1.35
   3  -1  -9   34.82    1.40
   3  -1  -9   34.54    1.43
   3   1  -9   33.04    1.39
   3   1  -8   12.67    0.91
   3  -1  -8   12.93    0.93
   3  -1  -8   11.70    0.93
   3   1  -8   13.02    0.96
   3   1  -7   45.68    1.80
   3  -1  -7   47.35    1.85
   3  -1  -7   44.44    1.87
   3   1  -7   43.31    1.83
   3   1  -6    3.16    0.50
   3  -1  -6    3.62    0.54
   3  -1  -6    3.38    0.54
   3   1  -6    2.66    0.48
   3   1  -5   51.69    1.89
   3  -1  -5   52.86    1.93
   3  -1  -5   51.54    2.00
   3   1  -5   53.05    2.00
   3   1  -4   45.10    1.71
   3  -1  -4   44.68    1.72
   3  -1  -4   43.84    1.78
   3   1  -4   43.96    1.75
   3  -1  -3   72.43    1.90
   3   1  -3   71.88    2.07
   3  -1  -3   71.75    2.11
   3   1  -3   68.66    1.69
   3  -1  -3   73.49    2.23
   3   1  -3   72.67    2.18
   3  -1  -2   28.16    1.20
   3   1  -2   29.03    1.29
   3  -1  -2   27.95    1.28
   3   1  -2   26.37    1.09
   3  -1  -2   30.28    1.38
   3   1  -2   27.86    1.30
   3  -1  -1   99.28    2.29
   3   1  -1   95.95    2.27
   3  -1  -1   97.33    2.31
   3   1  -1   94.41    2.10
   3  -1  -1   96.85    2.41
   3   1  -1   98.13    2.40
   3  -1   0   78.12    2.08
   3   1   0   81.22    2.07
   3  -1   0   77.71    2.05
   3   1   0   79.09    1.97
   3  -1   0   78.94    2.35
   3   1   0   75.21    2.28
   3  -1   0   80.33    1.96
   3  -1   0   79.52    2.20
   3   1   0   83.31    2.21
   3  -1   1   27.06    1.30
   3   1   1   28.25    1.31
   3   1   1   27.36    1.21
   3  -1   1   26.33    1.20
   3  -1   1   26.60    1.38
   3   1   1   24.89    1.32
   3  -1   1   26.22    1.17
   3   1   2   19.06    1.04
   3  -1   2   18.74    1.05
   3  -1   2   17.87    1.09
   3   1   2   17.92    1.08
   3  -1   2   17.33    1.13
   3   1   2   17.06    1.11
   3  -1   2   18.82    1.02
   3  -1   3   25.49    1.34
   3   1   3   26.17    1.34
   3  -1   3   27.61    1.45
   3   1   3   24.75    1.37
   3  -1   3   26.51    1.24
   3  -1   4   26.54    1.38
   3  -1   4   29.04    1.50
   3   1   4   27.75    1.47
   3   1   4   26.00    1.35
   3  -1   4   26.26    1.25
   3  -1   5   22.46    1.32
   3   1   5   22.55    1.33
   3  -1   5   21.92    1.13
   3  -1   6   21.32    1.25
   3   1   6   20.25    1.21
   3  -1   6   19.49    1.03
   3  -1   7   73.34    2.13
   3   1   7   74.33    2.13
   3  -1   7   69.67    1.74
   3   2  -8   29.47    1.18
   3  -2  -8   29.88    1.22
   3  -2  -8   28.54    1.23
   3   2  -8   28.91    1.22
   3   2  -7   69.58    1.95
   3  -2  -7   68.18    1.96
   3  -2  -7   69.20    2.04
   3   2  -7   70.08    2.01
   3   2  -6    8.93    0.72
   3  -2  -6    9.66    0.77
   3  -2  -6    8.79    0.76
   3   2  -6    9.78    0.79
   3   2  -5   85.14    2.19
   3  -2  -5   88.13    2.28
   3  -2  -5   88.89    2.38
   3   2  -5   87.16    2.31
   3  -2  -5   82.88    2.24
   3   2  -4   15.24    0.91
   3  -2  -4   15.06    0.93
   3   2  -4   13.59    0.81
   3  -2  -4   15.22    0.97
   3   2  -4   14.59    0.94
   3  -2  -4   14.87    0.98
   3   2  -3   95.53    2.22
   3  -2  -3   97.54    2.30
   3   2  -3   96.91    2.26
   3  -2  -3   96.80    2.36
   3   2  -3   96.70    2.32
   3  -2  -3   96.85    2.50
   3  -2  -2    9.44    0.79
   3   2  -2    8.94    0.67
   3  -2  -2    8.72    0.68
   3   2  -2    9.47    0.73
   3  -2  -2    8.16    0.67
   3   2  -2    8.90    0.70
   3  -2  -1   42.51    1.65
   3   2  -1   39.80    1.38
   3  -2  -1   42.56    1.43
   3   2  -1   45.21    1.61
   3  -2  -1   38.90    1.44
   3   2  -1   39.93    1.45
   3  -2   0    9.59    0.78
   3  -2   0    8.98    0.70
   3   2   0    9.03    0.71
   3   2   0    8.69    0.64
   3  -2   0    8.59    0.65
   3   2   0    9.85    0.76
   3  -2   0    8.92    0.66
   3   2   1   91.44    2.10
   3  -2   1   91.00    2.11
   3  -2   1   89.22    2.24
   3   2   1   86.44    2.20
   3   2   1   94.00    2.35
   3  -2   1   88.86    2.38
   3   2   1   88.97    2.36
   3  -2   1   89.93    2.17
   3  -2   2   30.16    1.32
   3   2   2   30.20    1.33
   3   2   2   31.79    1.35
   3  -2   2   31.80    1.42
   3   2   2   31.24    1.40
   3  -2   2   30.79    1.32
   3  -2   3   58.60    1.87
   3   2   3   59.52    1.89
   3  -2   3   60.50    1.98
   3   2   3   60.29    1.96
   3  -2   3   59.43    1.90
   3  -2   4   22.41    1.20
   3   2   4   21.33    1.17
   3  -2   4   23.87    1.22
   3  -2   5   44.05    1.65
   3   2   5   42.21    1.60
   3  -2   6    4.01    0.48
   3   2   6    3.61    0.46
   3  -2   6    3.53    0.45
   3  -3  -6   19.97    1.10
   3  -3  -5    6.24    0.67
   3   3  -4   51.01    1.69
   3  -3  -4   51.28    1.93
   3  -3  -3    0.92    0.28
   3   3  -3    0.83    0.24
   3  -3  -2  146.01    3.28
   3   3  -2  148.02    3.11
   3   3  -1    3.00    0.46
   3  -3   0  136.29    3.09
   3  -3   1    1.63    0.34
   3   3   1    1.07    0.28
   3  -3   1    1.65    0.30
   3   3   2   64.51    1.96
   3  -3   2   58.44    1.78
   3  -3   3    1.08    0.26
   3  -3   4   34.70    1.41
   3  -3   5    0.16    0.12
   3  -4  -5   61.68    1.93
   3   4  -4    2.95    0.41
   3  -4  -4    3.57    0.50
   3   4  -3   30.81    1.38
   3  -4  -2   19.45    1.16
   3   4  -2   18.49    1.09
   3  -4  -1   38.21    1.60
   3  -4   0    3.36    0.49
   3   4   0    3.82    0.50
   3  -4   1   19.57    1.10
   3   4   1   21.02    1.12
   3   4   2   21.93    1.07
   3  -4   3   72.97    1.77
   3  -5  -2   11.98    0.76
   3  -5  -1   20.09    0.97
   3   5  -1   21.03    1.00
   4   0  -5    0.06    0.09
   4   0  -5    0.09    0.10
   4   0  -4   48.69    1.69
   4   0  -4   49.63    1.78
   4   0  -3   -0.02    0.15
   4   0  -3    0.02    0.12
   4   0  -2   68.01    2.09
   4   0  -2   63.42    1.92
   4   0  -1    0.13    0.12
   4   0  -1    0.12    0.13
   4   0   0   81.40    2.14
   4   0   0   84.14    2.31
   4   0   1    0.02    0.09
   4   0   2   33.58    1.40
   4   0   3    0.02    0.07
   4   1  -5   45.54    1.49
   4  -1  -5   47.54    1.55
   4  -1  -5   47.60    1.62
   4   1  -5   45.96    1.57
   4   1  -4   14.54    0.87
   4  -1  -4   15.03    0.90
   4  -1  -4   14.01    0.91
   4   1  -4   14.89    0.93
   4  -1  -3   31.34    1.38
   4   1  -3   30.46    1.33
   4   1  -3   29.98    1.25
   4  -1  -3   30.12    1.29
   4   1  -2    0.29    0.14
   4  -1  -2    0.57    0.20
   4  -1  -2    0.74    0.23
   4   1  -2    0.20    0.14
   4   1  -1   37.12    1.38
   4  -1  -1   36.71    1.40
   4  -1  -1   36.58    1.50
   4   1  -1   35.44    1.46
   4   1   0   19.40    1.00
   4  -1   0   17.43    0.96
   4  -1   0   17.43    1.03
   4   1   0   18.84    1.06
   4  -1   1   27.57    1.25
   4   1   1   26.72    1.23
   4  -1   2    7.24    0.64
   4   1   2    8.03    0.66
   4  -2  -3   28.23    1.13
   4   2  -3   28.21    1.12
   4  -2  -3   29.06    1.08
   4  -2  -2   14.96    0.79
   4  -2  -2   15.44    0.85
   4   2  -2   15.47    0.85
   4  -2  -1   19.74    0.91
   4  -2  -1   19.49    0.96
   4   2  -1   18.06    0.93
   4  -2   0   18.82    0.93
   4   2   0   18.16    0.92
   0   0   0    0.00    0.00
;
_shelx_hkl_checksum              4279
loop_
_space_group_symop_operation_xyz
'x, y, z'
'x, -y, z+1/2'
loop_
_atom_site_label
_atom_site_type_symbol
_atom_site_fract_x
_atom_site_fract_y
_atom_site_fract_z
_atom_site_U_iso_or_equiv
_atom_site_adp_type
_atom_site_occupancy
_atom_site_site_symmetry_order
_atom_site_calc_flag
_atom_site_refinement_flags_posn
_atom_site_refinement_flags_adp
_atom_site_refinement_flags_occupancy
_atom_site_disorder_assembly
_atom_site_disorder_group
Zn1 Zn 0.92451(2) 0.33510(9) 0.56626(2) 0.01339(19) Uani 1 1 d . . . . .
Na1 Na 1.3677(7) 0.8265(3) 0.4486(2) 0.0223(5) Uani 1 1 d . . . . .
O1 O 0.9499(11) 0.4761(6) 0.3641(3) 0.0185(6) Uani 1 1 d . . . . .
O2 O 0.8304(10) 0.0794(6) 0.3291(4) 0.0168(7) Uani 1 1 d . . . . .
O3 O 0.9010(12) 0.6804(6) 0.6388(4) 0.0165(8) Uani 1 1 d . U . . .
C1 C 0.8922(14) 0.2899(9) 0.2779(5) 0.0134(9) Uani 1 1 d . . . . .
O4 O 0.4355(12) 0.1821(6) 0.6061(4) 0.0153(8) Uani 1 1 d D . . . .
H1 H 0.48(2) 0.112(10) 0.685(4) 0.029(16) Uiso 1 1 d D . . . .
loop_
_atom_site_aniso_label
_atom_site_aniso_U_11
_atom_site_aniso_U_22
_atom_site_aniso_U_33
_atom_site_aniso_U_23
_atom_site_aniso_U_13
_atom_site_aniso_U_12
Zn1 0.0125(3) 0.0129(3) 0.0150(3) 0.0010(3) 0.0024(2) 0.0007(3)
Na1 0.0251(12) 0.0167(9) 0.0238(12) 0.0022(7) -0.0023(9) -0.0027(8)
O1 0.0294(17) 0.0131(14) 0.0123(13) -0.0032(15) -0.0003(13) -0.0026(14)
O2 0.0239(19) 0.0115(14) 0.0146(15) 0.0015(12) 0.0005(14) -0.0039(12)
O3 0.0239(16) 0.0143(15) 0.0111(15) -0.0017(10) 0.0013(12) -0.0010(11)
C1 0.016(2) 0.014(2) 0.009(2) 0.0017(16) 0.0003(17) -0.0002(17)
O4 0.0151(15) 0.0147(15) 0.016(2) 0.0055(10) 0.0026(18) -0.0003(12)
loop_
_atom_type_symbol
_atom_type_description
_atom_type_scat_dispersion_real
_atom_type_scat_dispersion_imag
_atom_type_scat_source
C C 0.0137 0.0067 'International Tables Vol C Tables 4.2.6.8 and 6.1.1.4'
O O 0.0389 0.0241 'International Tables Vol C Tables 4.2.6.8 and 6.1.1.4'
Na Na 0.1104 0.0938 'International Tables Vol C Tables 4.2.6.8 and 6.1.1.4'
Zn Zn -2.7473 0.5279 'International Tables Vol C Tables 4.2.6.8 and 6.1.1.4'
F F 0.0583 0.0400 'International Tables Vol C Tables 4.2.6.8 and 6.1.1.4'
H H 0.0000 0.0000 'International Tables Vol C Tables 4.2.6.8 and 6.1.1.4'
loop_
_geom_angle_atom_site_label_1
_geom_angle_atom_site_label_2
_geom_angle_atom_site_label_3
_geom_angle
_geom_angle_site_symmetry_1
_geom_angle_site_symmetry_3
_geom_angle_publ_flag
O4 Zn1 O4 123.39(17) 1_655 . ?
O4 Zn1 O3 114.59(15) 1_655 . ?
O4 Zn1 O3 105.87(14) . . ?
O4 Zn1 O1 101.83(14) 1_655 . ?
O4 Zn1 O1 118.11(16) . . ?
O3 Zn1 O1 87.73(13) . . ?
O4 Zn1 Na1 88.97(10) 1_655 . ?
O4 Zn1 Na1 147.61(11) . . ?
O3 Zn1 Na1 52.29(11) . . ?
O1 Zn1 Na1 47.33(10) . . ?
O4 Zn1 Na1 149.63(10) 1_655 1_455 ?
O4 Zn1 Na1 86.95(11) . 1_455 ?
O3 Zn1 Na1 47.14(11) . 1_455 ?
O1 Zn1 Na1 59.15(10) . 1_455 ?
Na1 Zn1 Na1 60.67(3) . 1_455 ?
O4 Zn1 Na1 44.14(11) 1_655 1_545 ?
O4 Zn1 Na1 97.45(10) . 1_545 ?
O3 Zn1 Na1 155.82(12) . 1_545 ?
O1 Zn1 Na1 86.85(10) . 1_545 ?
Na1 Zn1 Na1 108.70(6) . 1_545 ?
Na1 Zn1 Na1 142.68(7) 1_455 1_545 ?
O4 Zn1 Na1 98.99(11) 1_655 1_445 ?
O4 Zn1 Na1 42.65(11) . 1_445 ?
O3 Zn1 Na1 144.89(12) . 1_445 ?
O1 Zn1 Na1 95.47(10) . 1_445 ?
Na1 Zn1 Na1 142.75(7) . 1_445 ?
Na1 Zn1 Na1 105.86(6) 1_455 1_445 ?
Na1 Zn1 Na1 59.19(3) 1_545 1_445 ?
O4 Na1 O2 80.29(13) 1_665 1_565 ?
O4 Na1 O2 78.50(12) 1_665 1_665 ?
O2 Na1 O2 87.63(12) 1_565 1_665 ?
O4 Na1 O1 145.80(16) 1_665 . ?
O2 Na1 O1 85.78(13) 1_565 . ?
O2 Na1 O1 132.20(14) 1_665 . ?
O4 Na1 O3 79.80(13) 1_665 1_655 ?
O2 Na1 O3 159.55(15) 1_565 1_655 ?
O2 Na1 O3 92.92(14) 1_665 1_655 ?
O1 Na1 O3 108.48(13) . 1_655 ?
O4 Na1 O3 82.00(13) 1_665 . ?
O2 Na1 O3 90.01(14) 1_565 . ?
O2 Na1 O3 160.48(14) 1_665 . ?
O1 Na1 O3 66.83(11) . . ?
O3 Na1 O3 82.67(13) 1_655 . ?
O4 Na1 O1 131.91(15) 1_665 1_655 ?
O2 Na1 O1 137.69(13) 1_565 1_655 ?
O2 Na1 O1 76.08(12) 1_665 1_655 ?
O1 Na1 O1 77.62(10) . 1_655 ?
O3 Na1 O1 61.67(11) 1_655 1_655 ?
O3 Na1 O1 117.41(12) . 1_655 ?
O4 Na1 Zn1 117.64(12) 1_665 . ?
O2 Na1 Zn1 105.32(10) 1_565 . ?
O2 Na1 Zn1 160.42(11) 1_665 . ?
O1 Na1 Zn1 37.62(8) . . ?
O3 Na1 Zn1 80.08(9) 1_655 . ?
O3 Na1 Zn1 37.17(7) . . ?
O1 Na1 Zn1 84.54(8) 1_655 . ?
O4 Na1 Zn1 115.63(12) 1_665 1_655 ?
O2 Na1 Zn1 161.96(10) 1_565 1_655 ?
O2 Na1 Zn1 103.33(11) 1_665 1_655 ?
O1 Na1 Zn1 76.23(10) . 1_655 ?
O3 Na1 Zn1 36.07(8) 1_655 1_655 ?
O3 Na1 Zn1 84.27(9) . 1_655 ?
O1 Na1 Zn1 36.75(7) 1_655 1_655 ?
Zn1 Na1 Zn1 60.67(3) . 1_655 ?
O4 Na1 Na1 88.70(11) 1_665 1_655 ?
O2 Na1 Na1 133.71(9) 1_565 1_655 ?
O2 Na1 Na1 46.08(9) 1_665 1_655 ?
O1 Na1 Na1 122.61(10) . 1_655 ?
O3 Na1 Na1 50.31(10) 1_655 1_655 ?
O3 Na1 Na1 132.98(10) . 1_655 ?
O1 Na1 Na1 44.99(8) 1_655 1_655 ?
Zn1 Na1 Na1 119.42(4) . 1_655 ?
Zn1 Na1 Na1 58.75(4) 1_655 1_655 ?
O4 Na1 Na1 91.30(11) 1_665 1_455 ?
O2 Na1 Na1 46.29(9) 1_565 1_455 ?
O2 Na1 Na1 133.92(9) 1_665 1_455 ?
O1 Na1 Na1 57.39(10) . 1_455 ?
O3 Na1 Na1 129.69(10) 1_655 1_455 ?
O3 Na1 Na1 47.02(10) . 1_455 ?
O1 Na1 Na1 135.01(8) 1_655 1_455 ?
Zn1 Na1 Na1 60.58(4) . 1_455 ?
Zn1 Na1 Na1 121.25(4) 1_655 1_455 ?
Na1 Na1 Na1 180.0 1_655 1_455 ?
O4 Na1 Zn1 33.44(10) 1_665 1_565 ?
O2 Na1 Zn1 49.40(8) 1_565 1_565 ?
O2 Na1 Zn1 90.87(9) 1_665 1_565 ?
O1 Na1 Zn1 118.69(11) . 1_565 ?
O3 Na1 Zn1 110.15(10) 1_655 1_565 ?
O3 Na1 Zn1 73.06(9) . 1_565 ?
O1 Na1 Zn1 163.68(10) 1_655 1_565 ?
Zn1 Na1 Zn1 108.70(6) . 1_565 ?
Zn1 Na1 Zn1 142.68(7) 1_655 1_565 ?
Na1 Na1 Zn1 118.69(4) 1_655 1_565 ?
Na1 Na1 Zn1 61.31(4) 1_455 1_565 ?
C1 O1 Zn1 104.5(2) . . ?
C1 O1 Na1 148.1(3) . . ?
Zn1 O1 Na1 95.05(12) . . ?
C1 O1 Na1 128.6(3) . 1_455 ?
Zn1 O1 Na1 84.10(11) . 1_455 ?
Na1 O1 Na1 77.62(10) . 1_455 ?
C1 O2 Na1 122.3(3) . 1_545 ?
C1 O2 Na1 145.2(3) . 1_445 ?
Na1 O2 Na1 87.63(12) 1_545 1_445 ?
C1 O3 Zn1 117.0(3) 2_565 . ?
C1 O3 Na1 123.9(3) 2_565 1_455 ?
Zn1 O3 Na1 96.78(14) . 1_455 ?
C1 O3 Na1 135.4(3) 2_565 . ?
Zn1 O3 Na1 90.54(13) . . ?
Na1 O3 Na1 82.67(13) 1_455 . ?
O2 C1 O1 120.0(4) . . ?
O2 C1 O3 120.4(4) . 2_564 ?
O1 C1 O3 119.6(4) . 2_564 ?
Zn1 O4 Zn1 123.39(16) 1_455 . ?
Zn1 O4 Na1 102.43(17) 1_455 1_445 ?
Zn1 O4 Na1 104.69(16) . 1_445 ?
loop_
_geom_bond_atom_site_label_1
_geom_bond_atom_site_label_2
_geom_bond_distance
_geom_bond_site_symmetry_2
_geom_bond_publ_flag
Zn1 O4 1.915(4) 1_655 ?
Zn1 O4 1.927(4) . ?
Zn1 O3 2.004(3) . ?
Zn1 O1 2.033(3) . ?
Zn1 Na1 3.3169(19) . ?
Zn1 Na1 3.3794(19) 1_455 ?
Zn1 Na1 3.3933(18) 1_545 ?
Zn1 Na1 3.4545(19) 1_445 ?
Na1 O4 2.420(4) 1_665 ?
Na1 O2 2.438(4) 1_565 ?
Na1 O2 2.447(4) 1_665 ?
Na1 O1 2.448(4) . ?
Na1 O3 2.495(5) 1_655 ?
Na1 O3 2.624(4) . ?
Na1 O1 2.917(4) 1_655 ?
Na1 Na1 3.38229(11) 1_655 ?
Na1 Na1 3.38231(10) 1_455 ?
O1 C1 1.291(5) . ?
O2 C1 1.268(6) . ?
O3 C1 1.301(5) 2_565 ?
