#------------------------------------------------------------------------------
#$Date: 2019-11-24 06:26:29 +0200 (Sun, 24 Nov 2019) $
#$Revision: 236948 $
#$URL: file:///home/coder/svn-repositories/cod/cif/4/34/99/4349919.cif $
#------------------------------------------------------------------------------
#
# This file is available in the Crystallography Open Database (COD),
# http://www.crystallography.net/
#
# All data on this site have been placed in the public domain by the
# contributors.
#
data_4349919
loop_
_publ_author_name
'Vismara, Rebecca'
'Tuci, Giulia'
'Mosca, Nello'
'Domasevitch, Kostiantyn V.'
'Di Nicola, Corrado'
'Pettinari, Claudio'
'Giambastiani, Giuliano'
'Galli, Simona'
'Rossin, Andrea'
_publ_section_title
;
 Amino-decorated bis(pyrazolate) metal--organic frameworks for carbon
 dioxide capture and green conversion into cyclic carbonates
;
_journal_issue                   2
_journal_name_full               'Inorganic Chemistry Frontiers'
_journal_page_first              533
_journal_paper_doi               10.1039/C8QI00997J
_journal_volume                  6
_journal_year                    2019
_chemical_formula_moiety         'C8.7 H11.3 Cu1 N5.9 O0.9'
_chemical_formula_structural     'Cu (C6H3N5H2) (C3H7NO)0.9'
_chemical_formula_sum            'C8.7 H11.3 Cu N5.9 O0.9'
_chemical_formula_weight         276.46
_space_group_crystal_system      orthorhombic
_space_group_IT_number           74
_space_group_name_Hall           '-I 2b 2'
_space_group_name_H-M_alt        'I m m a'
_audit_update_record
;
2018-09-06 deposited with the CCDC.
2018-12-27 downloaded from the CCDC.
;
_cell_angle_alpha                90
_cell_angle_beta                 90
_cell_angle_gamma                90
_cell_formula_units_Z            4
_cell_length_a                   15.2776(10)
_cell_length_b                   7.20969(54)
_cell_length_c                   9.65271(62)
_cell_measurement_temperature    298
_cell_volume                     1063.21(13)
_computing_cell_refinement       'TOPAS-Academic V6'
_computing_data_collection       'Bruker XRD Commander'
_computing_structure_refinement  'TOPAS-Academic V6'
_computing_structure_solution    'TOPAS-Academic V6'
_diffrn_ambient_temperature      298
_diffrn_detector_type            'Bruker Lynxeye linear PSD'
_diffrn_measurement_device_type  'Bruker AXS D8 Advance'
_diffrn_radiation_monochromator  'Nickel filter'
_diffrn_radiation_wavelength     CuK\a~1~
_diffrn_source_target            Cu
_diffrn_source_type              'sealed X-ray tube'
_exptl_crystal_density_diffrn    1.750
_exptl_crystal_density_meas      ?
_exptl_crystal_density_method    'not measured'
_exptl_crystal_F_000             564
_pd_char_colour                  brown
_pd_instr_location               ' ?'
_pd_meas_2theta_range_inc        0.02
_pd_meas_2theta_range_max        105
_pd_meas_2theta_range_min        5
_pd_meas_number_of_points        5001
_pd_meas_scan_method             step
_pd_proc_2theta_range_inc        0.02
_pd_proc_2theta_range_max        105
_pd_proc_2theta_range_min        8
_pd_proc_ls_background_function  'Chebyshev polynomial'
_pd_proc_ls_profile_function     'fundamental parameters approach'
_pd_proc_ls_prof_R_factor        0.013
_pd_proc_ls_prof_wR_expected     0.005
_pd_proc_ls_prof_wR_factor       0.018
_pd_spec_mounting
;
 packed powder pellet
;
_pd_spec_mount_mode              reflection
_pd_spec_shape                   flat_sheet
_pd_spec_size_axial              15
_pd_spec_size_equat              20
_pd_spec_size_thick              0.1
_refine_ls_extinction_method     none
_refine_ls_hydrogen_treatment    fixed
_refine_ls_matrix_type           fullcycle
_refine_ls_number_parameters     40
_refine_ls_number_restraints     0
_refine_ls_shift/su_max          .01
_refine_ls_structure_factor_coef Inet
_cod_data_source_file            c8qi00997j2.cif
_cod_data_source_block           added_by_encifer
_cod_depositor_comments
;
The following automatic conversions were performed:

data item '_exptl_crystal_density_meas' value 'not measured' was
changed to '?' -- the value is perceived as not measured.

Automatic conversion script
Id: cif_fix_values 6909 2019-04-08 15:41:33Z antanas 
;
_cod_original_sg_symbol_H-M      Imma
_cod_original_formula_sum        'C8.7 H11.3 Cu1 N5.9 O0.9'
_cod_database_code               4349919
loop_
_symmetry_equiv_pos_as_xyz
'-x, -y, -z'
'-x, -y+1/2, z'
'-x, y, z'
'-x, y+1/2, -z'
'-x+1/2, -y, z+1/2'
'-x+1/2, -y+1/2, -z+1/2'
'-x+1/2, y, -z+1/2'
'-x+1/2, y+1/2, z+1/2'
'x, -y, -z'
'x, -y+1/2, z'
'x, y, z'
'x, y+1/2, -z'
'x+1/2, -y, z+1/2'
'x+1/2, -y+1/2, -z+1/2'
'x+1/2, y, -z+1/2'
'x+1/2, y+1/2, z+1/2'
loop_
_atom_site_label
_atom_site_type_symbol
_atom_site_symmetry_multiplicity
_atom_site_fract_x
_atom_site_fract_y
_atom_site_fract_z
_atom_site_occupancy
_atom_site_B_iso_or_equiv
Cu Cu 4 0 0 0 1 0.42(10)
C2 C 8 0.2109546 0.25 0.2073118 1 2.42(10)
C1 C 16 0.1675107 0.4039996 0.1598147 1 2.42(10)
N1 N 16 0.09682737 0.3448509 0.08253689 1 2.42(10)
N3 N 16 0.1916421 0.5952743 0.1861975 0.25 2.42(10)
H3a H 16 0.2495888 0.6269959 0.2495504 0.25 2.42(10)
H3b H 16 0.1520019 0.7086577 0.1428591 0.25 2.42(10)
H1 H 16 0.1833209 0.5293175 0.1771 0.75 2.42(10)
O3 O 4 0.5 0.75 0.2715307 0.9501(44) 2.42(31)
C6 C 16 0.5161605 0.6830791 0.154839 0.2375(11) 2.42(31)
N4 N 16 0.4588939 0.7230625 0.03882965 0.2375(11) 2.42(31)
C5 C 16 0.3828811 0.8406741 0.05818275 0.2375(11) 2.42(31)
H6 H 16 0.5738253 0.5938565 0.1401573 0.2375(11) 2.42(31)
H51 H 16 0.3741978 0.9295792 -0.0334031 0.2375(11) 2.42(31)
H52 H 16 0.3243626 0.7537952 0.07222996 0.2375(11) 2.42(31)
H53 H 16 0.3923364 0.9279972 0.1504239 0.2375(11) 2.42(31)
C4 C 16 0.47764 0.6454342 -0.09653278 0.2375(11) 2.42(31)
H41 H 16 0.4858193 0.7583806 -0.1720446 0.2375(11) 2.42(31)
H42 H 16 0.5382146 0.5632414 -0.09143678 0.2375(11) 2.42(31)
H43 H 16 0.4231276 0.5557065 -0.1289516 0.2375(11) 2.42(31)
loop_
_atom_type_symbol
_atom_type_description
_atom_type_scat_source
C C 'International Tables for Crystallography (Vol. IV)'
H H 'International Tables for Crystallography (Vol. IV)'
Cu Cu 'International Tables for Crystallography (Vol. IV)'
N N 'International Tables for Crystallography (Vol. IV)'
O O 'International Tables for Crystallography (Vol. IV)'
loop_
_diffrn_radiation_type
'Cu K\a'
loop_
_pd_proc_wavelength
1.540562
1.544390
