#------------------------------------------------------------------------------
#$Date: 2025-08-21 17:09:30 +0300 (Thu, 21 Aug 2025) $
#$Revision: 301850 $
#$URL: file:///home/coder/svn-repositories/cod/cif/7/04/01/7040121.cif $
#------------------------------------------------------------------------------
#
# This file is available in the Crystallography Open Database (COD),
# http://www.crystallography.net/
#
# All data on this site have been placed in the public domain by the
# contributors.
#
data_7040121
loop_
_publ_author_name
'Zhao, Dan'
'Liu, Xiao-Hui'
'Shi, Zhuang-Zhi'
'Zhu, Chen-Dan'
'Zhao, Yue'
'Wang, Peng'
'Sun, Wei-Yin'
_publ_section_title
;
 Three powerful dinuclear metal-organic catalysts for converting CO2 into
 organic carbonates.
;
_journal_issue                   36
_journal_name_full
'Dalton transactions (Cambridge, England : 2003)'
_journal_page_first              14184
_journal_page_last               14190
_journal_paper_doi               10.1039/c6dt02755e
_journal_volume                  45
_journal_year                    2016
_chemical_absolute_configuration .ad
_chemical_formula_moiety         'C9 H8 O3'
_chemical_formula_sum            'C9 H8 O3'
_chemical_formula_weight         164.15
_space_group_crystal_system      orthorhombic
_space_group_IT_number           19
_space_group_name_Hall           'P 2ac 2ab'
_space_group_name_H-M_alt        'P 21 21 21'
_symmetry_space_group_name_Hall  'P 2ac 2ab'
_symmetry_space_group_name_H-M   'P 21 21 21'
_atom_sites_solution_hydrogens   geom
_atom_sites_solution_primary     direct
_atom_sites_solution_secondary   difmap
_audit_creation_method           SHELXL-2014/7
_audit_update_record
;
2016-08-01 deposited with the CCDC.
2016-08-02 downloaded from the CCDC.
;
_cell_angle_alpha                90
_cell_angle_beta                 90
_cell_angle_gamma                90
_cell_formula_units_Z            4
_cell_length_a                   6.1207(5)
_cell_length_b                   7.5850(6)
_cell_length_c                   16.9844(14)
_cell_measurement_reflns_used    3701
_cell_measurement_temperature    173(2)
_cell_measurement_theta_max      68.32
_cell_measurement_theta_min      5.21
_cell_volume                     788.51(11)
_computing_cell_refinement       'Bruker SMART'
_computing_data_collection       'Bruker APEX2'
_computing_data_reduction        'Bruker SAINT'
_computing_molecular_graphics    'Bruker SHELXTL'
_computing_publication_material  'Bruker SHELXTL'
_computing_structure_refinement  'SHELXL-2014/7 (Sheldrick, 2014)'
_computing_structure_solution    'SHELXS-2014/7 (Sheldrick, 2014)'
_diffrn_ambient_temperature      173(2)
_diffrn_measured_fraction_theta_full 0.977
_diffrn_measured_fraction_theta_max 0.977
_diffrn_measurement_device_type  'CCD area detector'
_diffrn_measurement_method       'phi and omega scans'
_diffrn_radiation_type           CuK\a
_diffrn_radiation_wavelength     1.54178
_diffrn_reflns_av_R_equivalents  0.0262
_diffrn_reflns_av_unetI/netI     0.0295
_diffrn_reflns_Laue_measured_fraction_full 0.977
_diffrn_reflns_Laue_measured_fraction_max 0.977
_diffrn_reflns_limit_h_max       7
_diffrn_reflns_limit_h_min       -5
_diffrn_reflns_limit_k_max       8
_diffrn_reflns_limit_k_min       -8
_diffrn_reflns_limit_l_max       18
_diffrn_reflns_limit_l_min       -20
_diffrn_reflns_number            2920
_diffrn_reflns_point_group_measured_fraction_full 0.944
_diffrn_reflns_point_group_measured_fraction_max 0.944
_diffrn_reflns_theta_full        65.494
_diffrn_reflns_theta_max         65.494
_diffrn_reflns_theta_min         6.391
_diffrn_source                   'fine-focus sealed tube'
_exptl_absorpt_coefficient_mu    0.876
_exptl_absorpt_correction_T_max  0.825
_exptl_absorpt_correction_T_min  0.789
_exptl_absorpt_correction_type   multi-scan
_exptl_absorpt_process_details   sadabs
_exptl_crystal_colour            colourless
_exptl_crystal_density_diffrn    1.383
_exptl_crystal_density_method    'not measured'
_exptl_crystal_description       block
_exptl_crystal_F_000             344
_exptl_crystal_size_max          0.280
_exptl_crystal_size_mid          0.260
_exptl_crystal_size_min          0.230
_exptl_transmission_factor_max   0.7531
_exptl_transmission_factor_min   0.4789
_refine_diff_density_max         0.166
_refine_diff_density_min         -0.131
_refine_diff_density_rms         0.033
_refine_ls_abs_structure_details
;
 Flack x determined using 469 quotients [(I+)-(I-)]/[(I+)+(I-)]
 (Parsons, Flack and Wagner, Acta Cryst. B69 (2013) 249-259).
;
_refine_ls_abs_structure_Flack   0.05(7)
_refine_ls_extinction_coef       0.041(3)
_refine_ls_extinction_expression Fc^*^=kFc[1+0.001xFc^2^\l^3^/sin(2\q)]^-1/4^
_refine_ls_extinction_method     'SHELXL-2014/7 (Sheldrick 2014'
_refine_ls_goodness_of_fit_ref   1.079
_refine_ls_hydrogen_treatment    constr
_refine_ls_matrix_type           full
_refine_ls_number_parameters     110
_refine_ls_number_reflns         1281
_refine_ls_number_restraints     0
_refine_ls_restrained_S_all      1.079
_refine_ls_R_factor_all          0.0258
_refine_ls_R_factor_gt           0.0255
_refine_ls_shift/su_max          0.000
_refine_ls_shift/su_mean         0.000
_refine_ls_structure_factor_coef Fsqd
_refine_ls_weighting_details
'w=1/[\s^2^(Fo^2^)+(0.0341P)^2^+0.1194P] where P=(Fo^2^+2Fc^2^)/3'
_refine_ls_weighting_scheme      calc
_refine_ls_wR_factor_gt          0.0676
_refine_ls_wR_factor_ref         0.0680
_reflns_Friedel_coverage         0.597
_reflns_Friedel_fraction_full    0.894
_reflns_Friedel_fraction_max     0.894
_reflns_number_gt                1266
_reflns_number_total             1281
_reflns_threshold_expression     'I > 2\s(I)'
_cod_data_source_file            c6dt02755e2.cif
_cod_data_source_block           R
_cod_depositor_comments
'Adding full bibliography for 7040117--7040122.cif.'
_cod_database_code               7040121
_shelx_shelxl_version_number     2014/7
_shelx_space_group_comment
;
The symmetry employed for this shelxl refinement is uniquely defined
by the following loop, which should always be used as a source of
symmetry information in preference to the above space-group names.
They are only intended as comments.
;
_shelx_estimated_absorpt_t_min   0.792
_shelx_estimated_absorpt_t_max   0.824
_shelx_res_file
;

    R.res created by SHELXL-2014/7

TITL R in P2(1)2(1)2(1)
CELL 1.54178   6.12070   7.58500  16.98440  90.0000  90.0000  90.0000
ZERR   4.00   0.00050   0.00060   0.00140   0.0000   0.0000   0.0000
LATT -1
SYMM 0.5-X, -Y, 0.5+Z
SYMM -X, 0.5+Y, 0.5-Z
SYMM 0.5+X, 0.5-Y, -Z
SFAC C  H  O
UNIT 36 32 12
OMIT   0.00 131.00
L.S. 10
ACTA
BOND $h
FMAP 2
PLAN 20
conf
size .28 .26 .23
temp -100
WGHT    0.034100    0.119400
EXTI    0.041330
FVAR       0.49043
C1    1    0.173060    0.622931    0.819078    11.00000    0.02537    0.01868 =
         0.02804    0.00229   -0.00005    0.00236
C2    1    0.366305    0.713909    0.806707    11.00000    0.02682    0.02588 =
         0.03120    0.00300   -0.00268   -0.00262
AFIX  43
H2    2    0.439815    0.766810    0.849935    11.00000   -1.20000
AFIX   0
C3    1    0.150830    0.562378    0.680240    11.00000    0.04201    0.03002 =
         0.02797   -0.00146   -0.00540    0.00369
AFIX  43
H3    2    0.076770    0.510768    0.636823    11.00000   -1.20000
AFIX   0
C4    1    0.064447    0.547386    0.755569    11.00000    0.02933    0.02395 =
         0.03184    0.00135   -0.00322   -0.00209
AFIX  43
H4    2   -0.068669    0.485600    0.763692    11.00000   -1.20000
AFIX   0
C5    1    0.453176    0.728172    0.731351    11.00000    0.02933    0.03570 =
         0.03874    0.00815    0.00667   -0.00283
AFIX  43
H5    2    0.586457    0.789657    0.723126    11.00000   -1.20000
AFIX   0
C6    1    0.344747    0.652464    0.668383    11.00000    0.04530    0.03450 =
         0.02836    0.00545    0.00745    0.00599
AFIX  43
H6    2    0.403594    0.662337    0.616813    11.00000   -1.20000
AFIX   0
C7    1    0.090469    0.600025    0.901739    11.00000    0.02010    0.02632 =
         0.02874   -0.00166   -0.00028   -0.00173
AFIX  13
H7    2    0.171258    0.681203    0.937860    11.00000   -1.20000
AFIX   0
C8    1    0.102385    0.412624    0.933276    11.00000    0.02291    0.03403 =
         0.03108    0.00687    0.00275   -0.00068
AFIX  23
H8A   2    0.101305    0.325492    0.889879    11.00000   -1.20000
H8B   2    0.235218    0.394913    0.965580    11.00000   -1.20000
AFIX   0
C9    1   -0.233415    0.524586    0.958406    11.00000    0.02689    0.03294 =
         0.02485   -0.00488    0.00179   -0.00470
O1    3   -0.093192    0.399032    0.980693    11.00000    0.02978    0.03807 =
         0.03085    0.00839    0.00376   -0.00346
O2    3   -0.416696    0.536660    0.982253    11.00000    0.02655    0.05486 =
         0.03790   -0.00594    0.00750   -0.00421
O3    3   -0.143490    0.635849    0.906603    11.00000    0.02600    0.02957 =
         0.03510    0.00331    0.00492    0.00347
HKLF 4

REM  1 in P2(1)2(1)2(1)
REM R1 =  0.0255 for    1266 Fo > 4sig(Fo)  and  0.0258 for all    1281 data
REM    110 parameters refined using      0 restraints

END

WGHT      0.0298      0.1377

REM Highest difference peak  0.166,  deepest hole -0.131,  1-sigma level  0.033
Q1    1   0.1070  0.5036  0.9177  11.00000  0.05    0.17
Q2    1  -0.4272  0.6576  0.9611  11.00000  0.05    0.14
Q3    1  -0.3919  0.4911  0.9405  11.00000  0.05    0.13
Q4    1   0.3011  0.5373  0.6810  11.00000  0.05    0.12
Q5    1  -0.2050  0.5349  0.8997  11.00000  0.05    0.11
Q6    1   0.4881  0.5863  0.8909  11.00000  0.05    0.10
Q7    1   0.1982  0.6591  0.6759  11.00000  0.05    0.10
Q8    1  -0.4942  0.3980  0.9645  11.00000  0.05    0.10
Q9    1  -0.5811  0.5858  0.9453  11.00000  0.05    0.10
Q10   1  -0.1837  0.5398  0.6788  11.00000  0.05    0.10
Q11   1   0.1493  0.6030  0.8600  11.00000  0.05    0.09
Q12   1   0.2063  0.7302  0.8108  11.00000  0.05    0.09
Q13   1   0.4550  0.6356  0.7020  11.00000  0.05    0.09
Q14   1   0.6694  0.6611  0.8124  11.00000  0.05    0.09
Q15   1  -0.5429  0.5171  0.9799  11.00000  0.05    0.09
Q16   1   0.6238  0.7164  0.7094  11.00000  0.05    0.08
Q17   1  -0.2247  0.3928  0.9536  11.00000  0.05    0.08
Q18   1  -0.0872  0.5071  0.9973  11.00000  0.05    0.08
Q19   1   0.7455  0.6468  0.6987  11.00000  0.05    0.08
Q20   1   0.3122  0.6127  0.8167  11.00000  0.05    0.08
;
_shelx_res_checksum              87054
loop_
_space_group_symop_operation_xyz
'x, y, z'
'-x+1/2, -y, z+1/2'
'-x, y+1/2, -z+1/2'
'x+1/2, -y+1/2, -z'
loop_
_atom_site_label
_atom_site_type_symbol
_atom_site_fract_x
_atom_site_fract_y
_atom_site_fract_z
_atom_site_U_iso_or_equiv
_atom_site_adp_type
_atom_site_occupancy
_atom_site_site_symmetry_order
_atom_site_calc_flag
_atom_site_refinement_flags_posn
_atom_site_refinement_flags_adp
C1 C 0.1731(3) 0.6229(2) 0.81908(10) 0.0240(4) Uani 1 1 d . .
C2 C 0.3663(3) 0.7139(2) 0.80671(10) 0.0280(4) Uani 1 1 d . .
H2 H 0.4398 0.7668 0.8499 0.034 Uiso 1 1 calc R U
C3 C 0.1508(3) 0.5624(2) 0.68024(10) 0.0333(5) Uani 1 1 d . .
H3 H 0.0768 0.5108 0.6368 0.040 Uiso 1 1 calc R U
C4 C 0.0644(3) 0.5474(2) 0.75557(10) 0.0284(4) Uani 1 1 d . .
H4 H -0.0687 0.4856 0.7637 0.034 Uiso 1 1 calc R U
C5 C 0.4532(3) 0.7282(2) 0.73135(11) 0.0346(5) Uani 1 1 d . .
H5 H 0.5865 0.7897 0.7231 0.042 Uiso 1 1 calc R U
C6 C 0.3447(4) 0.6525(2) 0.66838(11) 0.0361(5) Uani 1 1 d . .
H6 H 0.4036 0.6623 0.6168 0.043 Uiso 1 1 calc R U
C7 C 0.0905(3) 0.6000(2) 0.90174(10) 0.0251(4) Uani 1 1 d . .
H7 H 0.1713 0.6812 0.9379 0.030 Uiso 1 1 calc R U
C8 C 0.1024(3) 0.4126(2) 0.93328(10) 0.0293(4) Uani 1 1 d . .
H8A H 0.1013 0.3255 0.8899 0.035 Uiso 1 1 calc R U
H8B H 0.2352 0.3949 0.9656 0.035 Uiso 1 1 calc R U
C9 C -0.2334(3) 0.5246(2) 0.95841(11) 0.0282(5) Uani 1 1 d . .
O1 O -0.0932(2) 0.39903(17) 0.98069(7) 0.0329(4) Uani 1 1 d . .
O2 O -0.4167(2) 0.5367(2) 0.98225(8) 0.0398(4) Uani 1 1 d . .
O3 O -0.1435(2) 0.63585(16) 0.90660(7) 0.0302(3) Uani 1 1 d . .
loop_
_atom_site_aniso_label
_atom_site_aniso_U_11
_atom_site_aniso_U_22
_atom_site_aniso_U_33
_atom_site_aniso_U_23
_atom_site_aniso_U_13
_atom_site_aniso_U_12
C1 0.0254(9) 0.0187(8) 0.0280(8) 0.0023(6) -0.0001(8) 0.0024(7)
C2 0.0268(10) 0.0259(8) 0.0312(8) 0.0030(7) -0.0027(8) -0.0026(8)
C3 0.0420(12) 0.0300(9) 0.0280(8) -0.0015(7) -0.0054(9) 0.0037(9)
C4 0.0293(10) 0.0239(8) 0.0318(9) 0.0014(7) -0.0032(8) -0.0021(8)
C5 0.0293(11) 0.0357(10) 0.0387(10) 0.0081(8) 0.0067(9) -0.0028(8)
C6 0.0453(13) 0.0345(10) 0.0284(9) 0.0055(7) 0.0074(9) 0.0060(9)
C7 0.0201(9) 0.0263(8) 0.0287(8) -0.0017(7) -0.0003(7) -0.0017(7)
C8 0.0229(10) 0.0340(9) 0.0311(8) 0.0069(7) 0.0027(7) -0.0007(8)
C9 0.0269(11) 0.0329(10) 0.0249(8) -0.0049(7) 0.0018(7) -0.0047(8)
O1 0.0298(7) 0.0381(7) 0.0309(6) 0.0084(5) 0.0038(6) -0.0035(6)
O2 0.0266(8) 0.0549(9) 0.0379(7) -0.0059(6) 0.0075(6) -0.0042(7)
O3 0.0260(7) 0.0296(6) 0.0351(6) 0.0033(5) 0.0049(6) 0.0035(5)
loop_
_atom_type_symbol
_atom_type_description
_atom_type_scat_dispersion_real
_atom_type_scat_dispersion_imag
_atom_type_scat_source
C C 0.0181 0.0091 'International Tables Vol C Tables 4.2.6.8 and 6.1.1.4'
H H 0.0000 0.0000 'International Tables Vol C Tables 4.2.6.8 and 6.1.1.4'
O O 0.0492 0.0322 'International Tables Vol C Tables 4.2.6.8 and 6.1.1.4'
loop_
_geom_angle_atom_site_label_1
_geom_angle_atom_site_label_2
_geom_angle_atom_site_label_3
_geom_angle
C2 C1 C4 119.72(16)
C2 C1 C7 119.12(15)
C4 C1 C7 121.09(15)
C1 C2 C5 120.33(17)
C1 C2 H2 119.8
C5 C2 H2 119.8
C6 C3 C4 120.05(17)
C6 C3 H3 120.0
C4 C3 H3 120.0
C3 C4 C1 119.92(17)
C3 C4 H4 120.0
C1 C4 H4 120.0
C6 C5 C2 119.73(18)
C6 C5 H5 120.1
C2 C5 H5 120.1
C3 C6 C5 120.25(17)
C3 C6 H6 119.9
C5 C6 H6 119.9
O3 C7 C1 111.19(14)
O3 C7 C8 101.60(14)
C1 C7 C8 114.91(14)
O3 C7 H7 109.6
C1 C7 H7 109.6
C8 C7 H7 109.6
O1 C8 C7 102.89(14)
O1 C8 H8A 111.2
C7 C8 H8A 111.2
O1 C8 H8B 111.2
C7 C8 H8B 111.2
H8A C8 H8B 109.1
O2 C9 O1 124.11(18)
O2 C9 O3 124.08(19)
O1 C9 O3 111.81(15)
C9 O1 C8 108.84(13)
C9 O3 C7 108.87(14)
loop_
_geom_bond_atom_site_label_1
_geom_bond_atom_site_label_2
_geom_bond_distance
C1 C2 1.385(3)
C1 C4 1.391(2)
C1 C7 1.502(2)
C2 C5 1.390(3)
C2 H2 0.9500
C3 C6 1.384(3)
C3 C4 1.389(3)
C3 H3 0.9500
C4 H4 0.9500
C5 C6 1.383(3)
C5 H5 0.9500
C6 H6 0.9500
C7 O3 1.460(2)
C7 C8 1.521(2)
C7 H7 1.0000
C8 O1 1.446(2)
C8 H8A 0.9900
C8 H8B 0.9900
C9 O2 1.196(2)
C9 O1 1.337(2)
C9 O3 1.338(2)
loop_
_geom_torsion_atom_site_label_1
_geom_torsion_atom_site_label_2
_geom_torsion_atom_site_label_3
_geom_torsion_atom_site_label_4
_geom_torsion
C4 C1 C2 C5 -0.8(3)
C7 C1 C2 C5 176.21(16)
C6 C3 C4 C1 0.0(3)
C2 C1 C4 C3 0.5(3)
C7 C1 C4 C3 -176.45(16)
C1 C2 C5 C6 0.6(3)
C4 C3 C6 C5 -0.1(3)
C2 C5 C6 C3 -0.2(3)
C2 C1 C7 O3 135.15(16)
C4 C1 C7 O3 -47.9(2)
C2 C1 C7 C8 -110.16(18)
C4 C1 C7 C8 66.8(2)
O3 C7 C8 O1 -23.62(16)
C1 C7 C8 O1 -143.76(15)
O2 C9 O1 C8 173.21(18)
O3 C9 O1 C8 -7.2(2)
C7 C8 O1 C9 19.72(18)
O2 C9 O3 C7 170.10(17)
O1 C9 O3 C7 -9.48(19)
C1 C7 O3 C9 143.50(14)
C8 C7 O3 C9 20.77(17)
loop_
_cod_related_entry_id
_cod_related_entry_database
_cod_related_entry_code
1 PubChem 11073754
