#------------------------------------------------------------------------------
#$Date: 2025-08-04 10:03:09 +0300 (Mon, 04 Aug 2025) $
#$Revision: 301442 $
#$URL: file:///home/coder/svn-repositories/cod/cif/7/05/65/7056524.cif $
#------------------------------------------------------------------------------
#
# This file is available in the Crystallography Open Database (COD),
# http://www.crystallography.net/
#
# All data on this site have been placed in the public domain by the
# contributors.
#
data_7056524
loop_
_publ_author_name
'Alaji, Z.'
'Safaei, E.'
'Wojtczak, A.'
_publ_section_title
;
 Development of pyridine based o-aminophenolate zinc complexes as
 structurally tunable catalysts for CO2 fixation into cyclic carbonates
;
_journal_issue                   18
_journal_name_full               'New J. Chem.'
_journal_page_first              10121
_journal_page_last               10131
_journal_paper_doi               10.1039/C7NJ01656E
_journal_volume                  41
_journal_year                    2017
_chemical_formula_moiety         'C27 H30 Br N3 O Zn'
_chemical_formula_sum            'C27 H30 Br N3 O Zn'
_chemical_formula_weight         557.82
_chemical_name_systematic
;
 ?
;
_space_group_crystal_system      triclinic
_space_group_IT_number           2
_space_group_name_Hall           '-P 1'
_space_group_name_H-M_alt        'P -1'
_symmetry_space_group_name_Hall  '-P 1'
_symmetry_space_group_name_H-M   'P -1'
_atom_sites_solution_hydrogens   difmap
_atom_sites_solution_primary     direct
_atom_sites_solution_secondary   difmap
_audit_creation_method           SHELXL-2014
_audit_update_record
;
2016-08-02 deposited with the CCDC.
2017-07-31 downloaded from the CCDC.
;
_cell_angle_alpha                83.054(4)
_cell_angle_beta                 76.725(4)
_cell_angle_gamma                89.507(3)
_cell_formula_units_Z            2
_cell_length_a                   7.9476(3)
_cell_length_b                   11.5809(5)
_cell_length_c                   14.2737(6)
_cell_measurement_reflns_used    4061
_cell_measurement_temperature    293(2)
_cell_measurement_theta_max      28.2955
_cell_measurement_theta_min      2.1579
_cell_volume                     1269.02(9)
_computing_cell_refinement       'Oxford Diffraction CrysAlis'
_computing_data_collection       'Oxford Diffraction CrysAlis'
_computing_data_reduction        'Oxford Diffraction CrysAlis'
_computing_publication_material  'CIFTAB (Sheldrick, 2014)'
_computing_structure_refinement  'SHELXL-2014 (Sheldrick, 2014)'
_computing_structure_solution    'SHELX-97 (Sheldrick, 1997)'
_diffrn_ambient_temperature      293(2)
_diffrn_detector_area_resol_mean 8.2564
_diffrn_measured_fraction_theta_full 0.999
_diffrn_measured_fraction_theta_max 0.891
_diffrn_measurement_device_type  'Oxford Sapphire CCD'
_diffrn_measurement_method       \q/2\q
_diffrn_radiation_type           MoK\a
_diffrn_radiation_wavelength     0.71073
_diffrn_reflns_av_R_equivalents  0.0384
_diffrn_reflns_av_unetI/netI     0.0667
_diffrn_reflns_Laue_measured_fraction_full 0.999
_diffrn_reflns_Laue_measured_fraction_max 0.891
_diffrn_reflns_limit_h_max       10
_diffrn_reflns_limit_h_min       -10
_diffrn_reflns_limit_k_max       11
_diffrn_reflns_limit_k_min       -15
_diffrn_reflns_limit_l_max       18
_diffrn_reflns_limit_l_min       -19
_diffrn_reflns_number            8731
_diffrn_reflns_point_group_measured_fraction_full 0.999
_diffrn_reflns_point_group_measured_fraction_max 0.891
_diffrn_reflns_theta_full        25.242
_diffrn_reflns_theta_max         28.367
_diffrn_reflns_theta_min         2.442
_diffrn_source                   'fine-focus sealed tube'
_exptl_absorpt_coefficient_mu    2.566
_exptl_absorpt_correction_T_max  0.686286
_exptl_absorpt_correction_T_min  0.338022
_exptl_absorpt_correction_type   analytical
_exptl_absorpt_process_details   'Oxford Diffraction CrysAlis'
_exptl_crystal_colour            brown
_exptl_crystal_density_diffrn    1.460
_exptl_crystal_description       needle
_exptl_crystal_F_000             572
_exptl_crystal_recrystallization_method
'Re-crystallisation from solvent: methanol'
_exptl_crystal_size_max          0.661
_exptl_crystal_size_mid          0.326
_exptl_crystal_size_min          0.186
_refine_diff_density_max         0.479
_refine_diff_density_min         -0.351
_refine_diff_density_rms         0.081
_refine_ls_extinction_method     none
_refine_ls_goodness_of_fit_ref   0.882
_refine_ls_hydrogen_treatment    constr
_refine_ls_matrix_type           full
_refine_ls_number_parameters     298
_refine_ls_number_reflns         5668
_refine_ls_number_restraints     0
_refine_ls_restrained_S_all      0.882
_refine_ls_R_factor_all          0.0639
_refine_ls_R_factor_gt           0.0375
_refine_ls_shift/su_max          0.001
_refine_ls_shift/su_mean         0.000
_refine_ls_structure_factor_coef Fsqd
_refine_ls_weighting_details
'w=1/[\s^2^(Fo^2^)+(0.0448P)^2^] where P=(Fo^2^+2Fc^2^)/3'
_refine_ls_weighting_scheme      calc
_refine_ls_wR_factor_gt          0.0796
_refine_ls_wR_factor_ref         0.0859
_reflns_Friedel_coverage         0.000
_reflns_number_gt                3707
_reflns_number_total             5668
_reflns_threshold_expression     'I > 2\s(I)'
_cod_data_source_file            c7nj01656e2.cif
_cod_data_source_block           e1311a
_cod_original_cell_volume        1269.02(10)
_cod_database_code               7056524
#BEGIN Tags that were not found in dictionaries:
_shelx_space_group_comment
;
The symmetry employed for this shelxl refinement is uniquely defined
by the following loop, which should always be used as a source of
symmetry information in preference to the above space-group names.
They are only intended as comments.
;
_shelx_estimated_absorpt_t_min   0.282
_shelx_estimated_absorpt_t_max   0.647
_shelxl_version_number           2014-3
_shelx_res_file
;
TITL e1311a in P-1
REM P-1 (#2 in standard setting)
CELL 0.71073   7.947629  11.580862  14.273695  83.0538  76.7250  89.5071
ZERR    2.00   0.000332   0.000495   0.000606   0.0035   0.0036   0.0034
LATT  1
SFAC C H N O Zn Br
UNIT 54.00 60.00 6.00 2.00 2.00 2.00

TEMP  20
SIZE  0.6613 0.3257 0.1862

L.S. 10
BOND $H
FMAP 2
PLAN 20

OMIT -3
OMIT  0   1   1

CONF
HTAB
ACTA

WGHT    0.044800
FVAR       4.72457
MOLE   1
ZN1   5    0.139154    0.719821    0.573887    11.00000    0.02812    0.03203 =
         0.04071   -0.00780   -0.00402    0.00268
BR1   6    0.010398    0.688175    0.442361    11.00000    0.03525    0.04935 =
         0.04731   -0.00881   -0.01060   -0.00026
O1    4   -0.027783    0.698151    0.699480    11.00000    0.05303    0.02905 =
         0.04505   -0.00814    0.00360   -0.00065
C1    1   -0.058931    0.791712    0.743074    11.00000    0.02970    0.03192 =
         0.03428   -0.00432   -0.00714    0.00266
C2    1   -0.160985    0.790206    0.839017    11.00000    0.03362    0.03764 =
         0.03214   -0.00096   -0.00980    0.00070
C3    1   -0.189818    0.894083    0.877529    11.00000    0.03698    0.04421 =
         0.03276   -0.00553   -0.00602    0.00405
AFIX  43
H3A   2   -0.257460    0.892147    0.940231    11.00000   -1.20000
AFIX   0
C4    1   -0.124120    1.002674    0.828641    11.00000    0.03648    0.03685 =
         0.03572   -0.00958   -0.01121    0.00406
C5    1   -0.025012    1.003401    0.735595    11.00000    0.03154    0.02986 =
         0.03759   -0.00480   -0.00504    0.00067
AFIX  43
H5A   2    0.019291    1.073708    0.700307    11.00000   -1.20000
AFIX   0
C6    1    0.009760    0.901605    0.693754    11.00000    0.02509    0.03441 =
         0.03267   -0.00765   -0.00491    0.00381
C7    1    0.181643    0.982817    0.540355    11.00000    0.02968    0.03240 =
         0.03888   -0.00686   -0.01186    0.00431
AFIX  43
H7A   2    0.137299    1.055174    0.553626    11.00000   -1.20000
AFIX   0
N1    3    0.120974    0.894203    0.602589    11.00000    0.02873    0.03148 =
         0.03583   -0.00634   -0.00669    0.00075
C8    1    0.313978    0.979252    0.450854    11.00000    0.02582    0.03027 =
         0.03385   -0.00659   -0.00961   -0.00132
C9    1    0.342922    1.080697    0.385655    11.00000    0.03666    0.03634 =
         0.04392   -0.00052   -0.01652   -0.00041
AFIX  43
H9A   2    0.272947    1.144137    0.399320    11.00000   -1.20000
AFIX   0
C10   1    0.470581    1.090481    0.302188    11.00000    0.04614    0.04819 =
         0.04103    0.01070   -0.01301   -0.00910
AFIX  43
H10A  2    0.486170    1.159379    0.260068    11.00000   -1.20000
AFIX   0
C11   1    0.576415    0.996756    0.281014    11.00000    0.03926    0.06149 =
         0.04076   -0.00184   -0.00684   -0.00974
AFIX  43
H11A  2    0.664206    1.002872    0.224841    11.00000   -1.20000
AFIX   0
C12   1    0.551343    0.894615    0.343275    11.00000    0.03480    0.04387 =
         0.03933   -0.00576   -0.00706    0.00084
AFIX  43
H12A  2    0.621804    0.831655    0.328651    11.00000   -1.20000
AFIX   0
C13   1    0.421958    0.885057    0.427475    11.00000    0.02443    0.03659 =
         0.03269   -0.00434   -0.00915   -0.00348
N2    3    0.394433    0.779541    0.491472    11.00000    0.02957    0.02966 =
         0.03374   -0.00725   -0.00754    0.00174
C14   1    0.516662    0.714677    0.508228    11.00000    0.02661    0.03962 =
         0.03923   -0.01175   -0.00640    0.00070
AFIX  43
H14A  2    0.630842    0.734220    0.477313    11.00000   -1.20000
AFIX   0
C15   1    0.474874    0.608513    0.577078    11.00000    0.03338    0.03320 =
         0.03430   -0.00985   -0.00841    0.00246
C16   1    0.600607    0.536763    0.603430    11.00000    0.03585    0.04164 =
         0.05585   -0.01033   -0.01558    0.00540
AFIX  43
H16A  2    0.717226    0.552591    0.575987    11.00000   -1.20000
AFIX   0
C17   1    0.548577    0.440960    0.671567    11.00000    0.05627    0.04122 =
         0.05662   -0.00814   -0.02451    0.01487
AFIX  43
H17A  2    0.630015    0.390202    0.689685    11.00000   -1.20000
AFIX   0
C18   1    0.376078    0.421410    0.712175    11.00000    0.06186    0.03512 =
         0.05578   -0.00542   -0.01233    0.00797
AFIX  43
H18A  2    0.339070    0.358830    0.759692    11.00000   -1.20000
AFIX   0
C19   1    0.257189    0.496707    0.681164    11.00000    0.04218    0.03984 =
         0.04776   -0.00748   -0.00104    0.00364
AFIX  43
H19A  2    0.139928    0.481897    0.707348    11.00000   -1.20000
AFIX   0
N3    3    0.304641    0.588713    0.615752    11.00000    0.03455    0.03147 =
         0.04252   -0.00760   -0.00511    0.00305
C20   1   -0.231958    0.673720    0.897292    11.00000    0.05996    0.04016 =
         0.03536    0.00090   -0.00535    0.00096
C21   1   -0.335732    0.688736    0.998595    11.00000    0.10538    0.05624 =
         0.04712    0.00415    0.01416   -0.02133
AFIX  33
H21A  2   -0.264097    0.725341    1.032670    11.00000   -1.20000
H21B  2   -0.433589    0.736428    0.993978    11.00000   -1.20000
H21C  2   -0.375031    0.613919    1.033097    11.00000   -1.20000
AFIX   0
C22   1   -0.350063    0.615594    0.846041    11.00000    0.10831    0.05662 =
         0.07315    0.00695   -0.01733   -0.04073
AFIX  33
H22A  2   -0.287629    0.605025    0.781695    11.00000   -1.20000
H22B  2   -0.389262    0.541286    0.881603    11.00000   -1.20000
H22C  2   -0.447821    0.663794    0.842485    11.00000   -1.20000
AFIX   0
C23   1   -0.080805    0.595525    0.909218    11.00000    0.11210    0.06251 =
         0.07869    0.02054   -0.01720    0.02448
AFIX  33
H23A  2   -0.012046    0.584035    0.846457    11.00000   -1.20000
H23B  2   -0.010933    0.631641    0.944566    11.00000   -1.20000
H23C  2   -0.124375    0.521721    0.944131    11.00000   -1.20000
AFIX   0
C24   1   -0.163538    1.115710    0.874165    11.00000    0.04368    0.04011 =
         0.03932   -0.01448   -0.00762    0.00693
C25   1   -0.000926    1.193629    0.851610    11.00000    0.07016    0.05761 =
         0.08038   -0.03738   -0.00317   -0.00527
AFIX  33
H25A  2    0.044033    1.206922    0.782707    11.00000   -1.20000
H25B  2   -0.029546    1.266667    0.876147    11.00000   -1.20000
H25C  2    0.084634    1.156127    0.881843    11.00000   -1.20000
AFIX   0
C26   1   -0.229576    1.097285    0.983729    11.00000    0.08180    0.05888 =
         0.04545   -0.01968   -0.01369    0.01802
AFIX  33
H26A  2   -0.251669    1.171306    1.007535    11.00000   -1.20000
H26B  2   -0.334579    1.051387    1.000104    11.00000   -1.20000
H26C  2   -0.144183    1.057527    1.012737    11.00000   -1.20000
AFIX   0
C27   1   -0.301730    1.182211    0.829426    11.00000    0.07079    0.06063 =
         0.05644   -0.02040   -0.01488    0.02613
AFIX  33
H27A  2   -0.261953    1.194573    0.760134    11.00000   -1.20000
H27B  2   -0.407734    1.137362    0.846374    11.00000   -1.20000
H27C  2   -0.321212    1.255943    0.854021    11.00000   -1.20000
AFIX   0
HKLF 4

REM  e1311a in P-1
REM R1 =  0.0375 for    3707 Fo > 4sig(Fo)  and  0.0639 for all    5668 data
REM    298 parameters refined using      0 restraints

END

WGHT      0.0448      0.0000

REM Instructions for potential hydrogen bonds
EQIV $1 x+1, y, z
HTAB C14 Br1_$1
HTAB C16 Br1_$1

REM Highest difference peak  0.479,  deepest hole -0.351,  1-sigma level  0.081
Q1    1  -0.0080  0.6624  0.5141  11.00000  0.05    0.45
Q2    1   0.0557  0.7019  0.3525  11.00000  0.05    0.38
Q3    1   0.0857  0.7052  0.6571  11.00000  0.05    0.36
Q4    1   0.3414  1.0390  0.4315  11.00000  0.05    0.35
Q5    1   0.3967  0.8209  0.4533  11.00000  0.05    0.34
Q6    1  -0.0449  0.8011  0.4440  11.00000  0.05    0.33
Q7    1   0.8093  0.6974  0.4395  11.00000  0.05    0.32
Q8    1   0.1751  0.7507  0.5095  11.00000  0.05    0.32
Q9    1   0.5324  0.8865  0.3992  11.00000  0.05    0.32
Q10   1   0.4854  0.6688  0.5634  11.00000  0.05    0.31
Q11   1   0.5705  0.9627  0.3362  11.00000  0.05    0.31
Q12   1   0.5311  0.5287  0.5441  11.00000  0.05    0.30
Q13   1   0.5222  0.5854  0.6059  11.00000  0.05    0.29
Q14   1  -0.1705  0.6989  0.5376  11.00000  0.05    0.29
Q15   1   0.4647  0.8761  0.3774  11.00000  0.05    0.29
Q16   1   0.1195  0.3415  0.6918  11.00000  0.05    0.29
Q17   1  -0.1445  1.0599  0.8561  11.00000  0.05    0.28
Q18   1   0.6629  0.8237  0.4402  11.00000  0.05    0.27
Q19   1   0.2393  0.7842  0.5227  11.00000  0.05    0.27
Q20   1   0.4458  1.0910  0.3617  11.00000  0.05    0.26
;
_shelx_res_checksum              78620
#END Tags that were not found in dictionaries
loop_
_space_group_symop_operation_xyz
'x, y, z'
'-x, -y, -z'
loop_
_atom_site_label
_atom_site_type_symbol
_atom_site_fract_x
_atom_site_fract_y
_atom_site_fract_z
_atom_site_U_iso_or_equiv
_atom_site_adp_type
_atom_site_occupancy
_atom_site_site_symmetry_order
_atom_site_calc_flag
_atom_site_refinement_flags_posn
_atom_site_refinement_flags_adp
Zn1 Zn 0.13915(4) 0.71982(3) 0.57389(2) 0.03399(10) Uani 1 1 d . .
Br1 Br 0.01040(4) 0.68817(3) 0.44236(2) 0.04354(11) Uani 1 1 d . .
O1 O -0.0278(3) 0.69815(17) 0.69948(15) 0.0445(5) Uani 1 1 d . .
C1 C -0.0589(3) 0.7917(2) 0.7431(2) 0.0320(6) Uani 1 1 d . .
C2 C -0.1610(4) 0.7902(2) 0.8390(2) 0.0344(7) Uani 1 1 d . .
C3 C -0.1898(4) 0.8941(3) 0.8775(2) 0.0383(7) Uani 1 1 d . .
H3A H -0.2575 0.8921 0.9402 0.046 Uiso 1 1 calc R U
C4 C -0.1241(4) 1.0027(2) 0.8286(2) 0.0355(7) Uani 1 1 d . .
C5 C -0.0250(3) 1.0034(2) 0.7356(2) 0.0334(6) Uani 1 1 d . .
H5A H 0.0193 1.0737 0.7003 0.040 Uiso 1 1 calc R U
C6 C 0.0098(3) 0.9016(2) 0.6938(2) 0.0307(6) Uani 1 1 d . .
C7 C 0.1816(3) 0.9828(2) 0.5404(2) 0.0328(6) Uani 1 1 d . .
H7A H 0.1373 1.0552 0.5536 0.039 Uiso 1 1 calc R U
N1 N 0.1210(3) 0.89420(19) 0.60259(17) 0.0319(5) Uani 1 1 d . .
C8 C 0.3140(3) 0.9793(2) 0.4509(2) 0.0293(6) Uani 1 1 d . .
C9 C 0.3429(4) 1.0807(3) 0.3857(2) 0.0382(7) Uani 1 1 d . .
H9A H 0.2729 1.1441 0.3993 0.046 Uiso 1 1 calc R U
C10 C 0.4706(4) 1.0905(3) 0.3022(2) 0.0459(8) Uani 1 1 d . .
H10A H 0.4862 1.1594 0.2601 0.055 Uiso 1 1 calc R U
C11 C 0.5764(4) 0.9968(3) 0.2810(2) 0.0479(8) Uani 1 1 d . .
H11A H 0.6642 1.0029 0.2248 0.057 Uiso 1 1 calc R U
C12 C 0.5513(4) 0.8946(3) 0.3433(2) 0.0395(7) Uani 1 1 d . .
H12A H 0.6218 0.8317 0.3287 0.047 Uiso 1 1 calc R U
C13 C 0.4220(3) 0.8851(2) 0.4275(2) 0.0308(6) Uani 1 1 d . .
N2 N 0.3944(3) 0.77954(19) 0.49147(16) 0.0307(5) Uani 1 1 d . .
C14 C 0.5167(4) 0.7147(2) 0.5082(2) 0.0348(7) Uani 1 1 d . .
H14A H 0.6308 0.7342 0.4773 0.042 Uiso 1 1 calc R U
C15 C 0.4749(4) 0.6085(2) 0.5771(2) 0.0331(6) Uani 1 1 d . .
C16 C 0.6006(4) 0.5368(3) 0.6034(2) 0.0433(8) Uani 1 1 d . .
H16A H 0.7172 0.5526 0.5760 0.052 Uiso 1 1 calc R U
C17 C 0.5486(4) 0.4410(3) 0.6716(2) 0.0494(8) Uani 1 1 d . .
H17A H 0.6300 0.3902 0.6897 0.059 Uiso 1 1 calc R U
C18 C 0.3761(5) 0.4214(3) 0.7122(3) 0.0512(9) Uani 1 1 d . .
H18A H 0.3391 0.3588 0.7597 0.061 Uiso 1 1 calc R U
C19 C 0.2572(4) 0.4967(3) 0.6812(2) 0.0446(8) Uani 1 1 d . .
H19A H 0.1399 0.4819 0.7073 0.054 Uiso 1 1 calc R U
N3 N 0.3046(3) 0.5887(2) 0.61575(18) 0.0365(6) Uani 1 1 d . .
C20 C -0.2320(4) 0.6737(3) 0.8973(2) 0.0465(8) Uani 1 1 d . .
C21 C -0.3357(6) 0.6887(3) 0.9986(3) 0.0755(12) Uani 1 1 d . .
H21A H -0.2641 0.7253 1.0327 0.091 Uiso 1 1 calc R U
H21B H -0.4336 0.7364 0.9940 0.091 Uiso 1 1 calc R U
H21C H -0.3750 0.6139 1.0331 0.091 Uiso 1 1 calc R U
C22 C -0.3501(6) 0.6156(3) 0.8460(3) 0.0809(13) Uani 1 1 d . .
H22A H -0.2876 0.6050 0.7817 0.097 Uiso 1 1 calc R U
H22B H -0.3893 0.5413 0.8816 0.097 Uiso 1 1 calc R U
H22C H -0.4478 0.6638 0.8425 0.097 Uiso 1 1 calc R U
C23 C -0.0808(6) 0.5955(4) 0.9092(3) 0.0878(14) Uani 1 1 d . .
H23A H -0.0120 0.5840 0.8465 0.105 Uiso 1 1 calc R U
H23B H -0.0109 0.6316 0.9446 0.105 Uiso 1 1 calc R U
H23C H -0.1244 0.5217 0.9441 0.105 Uiso 1 1 calc R U
C24 C -0.1635(4) 1.1157(3) 0.8742(2) 0.0406(7) Uani 1 1 d . .
C25 C -0.0009(5) 1.1936(3) 0.8516(3) 0.0692(11) Uani 1 1 d . .
H25A H 0.0440 1.2069 0.7827 0.083 Uiso 1 1 calc R U
H25B H -0.0295 1.2667 0.8761 0.083 Uiso 1 1 calc R U
H25C H 0.0846 1.1561 0.8818 0.083 Uiso 1 1 calc R U
C26 C -0.2296(5) 1.0973(3) 0.9837(2) 0.0612(10) Uani 1 1 d . .
H26A H -0.2517 1.1713 1.0075 0.073 Uiso 1 1 calc R U
H26B H -0.3346 1.0514 1.0001 0.073 Uiso 1 1 calc R U
H26C H -0.1442 1.0575 1.0127 0.073 Uiso 1 1 calc R U
C27 C -0.3017(5) 1.1822(3) 0.8294(3) 0.0616(10) Uani 1 1 d . .
H27A H -0.2620 1.1946 0.7601 0.074 Uiso 1 1 calc R U
H27B H -0.4077 1.1374 0.8464 0.074 Uiso 1 1 calc R U
H27C H -0.3212 1.2559 0.8540 0.074 Uiso 1 1 calc R U
loop_
_atom_site_aniso_label
_atom_site_aniso_U_11
_atom_site_aniso_U_22
_atom_site_aniso_U_33
_atom_site_aniso_U_23
_atom_site_aniso_U_13
_atom_site_aniso_U_12
Zn1 0.02812(18) 0.03203(19) 0.0407(2) -0.00780(15) -0.00402(15) 0.00268(14)
Br1 0.03525(17) 0.0493(2) 0.0473(2) -0.00881(15) -0.01060(15) -0.00026(14)
O1 0.0530(13) 0.0291(11) 0.0451(13) -0.0081(10) 0.0036(11) -0.0007(10)
C1 0.0297(14) 0.0319(16) 0.0343(16) -0.0043(13) -0.0071(13) 0.0027(12)
C2 0.0336(15) 0.0376(17) 0.0321(16) -0.0010(13) -0.0098(13) 0.0007(13)
C3 0.0370(16) 0.0442(18) 0.0328(17) -0.0055(14) -0.0060(14) 0.0040(14)
C4 0.0365(16) 0.0368(17) 0.0357(17) -0.0096(14) -0.0112(14) 0.0041(13)
C5 0.0315(15) 0.0299(15) 0.0376(17) -0.0048(13) -0.0050(13) 0.0007(12)
C6 0.0251(13) 0.0344(16) 0.0327(16) -0.0076(13) -0.0049(12) 0.0038(12)
C7 0.0297(14) 0.0324(16) 0.0389(17) -0.0069(13) -0.0119(13) 0.0043(12)
N1 0.0287(12) 0.0315(13) 0.0358(14) -0.0063(11) -0.0067(11) 0.0008(10)
C8 0.0258(13) 0.0303(15) 0.0339(16) -0.0066(12) -0.0096(12) -0.0013(11)
C9 0.0367(16) 0.0363(17) 0.0439(19) -0.0005(14) -0.0165(15) -0.0004(13)
C10 0.0461(18) 0.048(2) 0.0410(19) 0.0107(16) -0.0130(16) -0.0091(16)
C11 0.0393(17) 0.061(2) 0.041(2) -0.0018(17) -0.0068(15) -0.0097(16)
C12 0.0348(16) 0.0439(18) 0.0393(18) -0.0058(15) -0.0071(14) 0.0008(14)
C13 0.0244(14) 0.0366(16) 0.0327(16) -0.0043(13) -0.0091(13) -0.0035(12)
N2 0.0296(12) 0.0297(13) 0.0337(13) -0.0073(11) -0.0075(11) 0.0017(10)
C14 0.0266(13) 0.0396(17) 0.0392(18) -0.0118(14) -0.0064(13) 0.0007(13)
C15 0.0334(15) 0.0332(16) 0.0343(17) -0.0098(13) -0.0084(13) 0.0025(12)
C16 0.0358(16) 0.0416(18) 0.056(2) -0.0103(16) -0.0156(16) 0.0054(14)
C17 0.056(2) 0.0412(19) 0.057(2) -0.0081(17) -0.0245(19) 0.0149(16)
C18 0.062(2) 0.0351(18) 0.056(2) -0.0054(16) -0.0123(19) 0.0080(16)
C19 0.0422(18) 0.0398(18) 0.048(2) -0.0075(16) -0.0010(16) 0.0036(15)
N3 0.0345(13) 0.0315(14) 0.0425(15) -0.0076(12) -0.0051(12) 0.0030(10)
C20 0.060(2) 0.0402(19) 0.0354(18) 0.0009(15) -0.0054(16) 0.0010(16)
C21 0.105(3) 0.056(2) 0.047(2) 0.0042(19) 0.014(2) -0.021(2)
C22 0.108(4) 0.057(3) 0.073(3) 0.007(2) -0.017(3) -0.041(2)
C23 0.112(4) 0.063(3) 0.079(3) 0.021(2) -0.017(3) 0.024(3)
C24 0.0437(17) 0.0401(18) 0.0393(18) -0.0145(14) -0.0076(15) 0.0069(14)
C25 0.070(3) 0.058(2) 0.080(3) -0.037(2) -0.003(2) -0.005(2)
C26 0.082(3) 0.059(2) 0.045(2) -0.0197(18) -0.014(2) 0.018(2)
C27 0.071(2) 0.061(2) 0.056(2) -0.0204(19) -0.015(2) 0.026(2)
loop_
_atom_type_symbol
_atom_type_description
_atom_type_scat_dispersion_real
_atom_type_scat_dispersion_imag
_atom_type_scat_source
C C 0.0033 0.0016 'International Tables Vol C Tables 4.2.6.8 and 6.1.1.4'
H H 0.0000 0.0000 'International Tables Vol C Tables 4.2.6.8 and 6.1.1.4'
N N 0.0061 0.0033 'International Tables Vol C Tables 4.2.6.8 and 6.1.1.4'
O O 0.0106 0.0060 'International Tables Vol C Tables 4.2.6.8 and 6.1.1.4'
Zn Zn 0.2839 1.4301 'International Tables Vol C Tables 4.2.6.8 and 6.1.1.4'
Br Br -0.2901 2.4595 'International Tables Vol C Tables 4.2.6.8 and 6.1.1.4'
loop_
_geom_angle_atom_site_label_1
_geom_angle_atom_site_label_2
_geom_angle_atom_site_label_3
_geom_angle
O1 Zn1 N1 81.11(8)
O1 Zn1 N3 93.67(9)
N1 Zn1 N3 129.02(8)
O1 Zn1 N2 148.00(8)
N1 Zn1 N2 82.04(8)
N3 Zn1 N2 76.36(9)
O1 Zn1 Br1 112.25(6)
N1 Zn1 Br1 111.95(6)
N3 Zn1 Br1 116.75(6)
N2 Zn1 Br1 99.24(6)
C1 O1 Zn1 115.04(17)
O1 C1 C2 123.0(2)
O1 C1 C6 119.9(3)
C2 C1 C6 117.1(2)
C3 C2 C1 118.5(3)
C3 C2 C20 122.1(3)
C1 C2 C20 119.5(3)
C2 C3 C4 124.5(3)
C2 C3 H3A 117.7
C4 C3 H3A 117.7
C5 C4 C3 116.7(3)
C5 C4 C24 121.0(3)
C3 C4 C24 122.3(3)
C4 C5 C6 121.3(3)
C4 C5 H5A 119.4
C6 C5 H5A 119.4
C5 C6 N1 124.5(2)
C5 C6 C1 121.9(3)
N1 C6 C1 113.5(2)
N1 C7 C8 125.6(3)
N1 C7 H7A 117.2
C8 C7 H7A 117.2
C7 N1 C6 124.4(2)
C7 N1 Zn1 124.89(19)
C6 N1 Zn1 110.02(17)
C9 C8 C13 117.1(3)
C9 C8 C7 117.0(3)
C13 C8 C7 125.8(2)
C10 C9 C8 122.5(3)
C10 C9 H9A 118.8
C8 C9 H9A 118.8
C9 C10 C11 119.4(3)
C9 C10 H10A 120.3
C11 C10 H10A 120.3
C12 C11 C10 119.9(3)
C12 C11 H11A 120.0
C10 C11 H11A 120.0
C11 C12 C13 120.4(3)
C11 C12 H12A 119.8
C13 C12 H12A 119.8
C12 C13 C8 120.6(3)
C12 C13 N2 120.7(3)
C8 C13 N2 118.7(2)
C14 N2 C13 123.2(2)
C14 N2 Zn1 114.38(19)
C13 N2 Zn1 122.38(16)
N2 C14 C15 119.0(3)
N2 C14 H14A 120.5
C15 C14 H14A 120.5
N3 C15 C16 122.5(3)
N3 C15 C14 114.9(2)
C16 C15 C14 122.6(3)
C17 C16 C15 118.3(3)
C17 C16 H16A 120.8
C15 C16 H16A 120.8
C18 C17 C16 119.4(3)
C18 C17 H17A 120.3
C16 C17 H17A 120.3
C17 C18 C19 118.9(3)
C17 C18 H18A 120.6
C19 C18 H18A 120.6
N3 C19 C18 122.5(3)
N3 C19 H19A 118.8
C18 C19 H19A 118.8
C19 N3 C15 118.3(3)
C19 N3 Zn1 126.1(2)
C15 N3 Zn1 115.31(19)
C21 C20 C22 107.7(3)
C21 C20 C23 107.1(3)
C22 C20 C23 110.5(3)
C21 C20 C2 112.1(3)
C22 C20 C2 110.3(3)
C23 C20 C2 109.0(3)
C20 C21 H21A 109.5
C20 C21 H21B 109.5
H21A C21 H21B 109.5
C20 C21 H21C 109.5
H21A C21 H21C 109.5
H21B C21 H21C 109.5
C20 C22 H22A 109.5
C20 C22 H22B 109.5
H22A C22 H22B 109.5
C20 C22 H22C 109.5
H22A C22 H22C 109.5
H22B C22 H22C 109.5
C20 C23 H23A 109.5
C20 C23 H23B 109.5
H23A C23 H23B 109.5
C20 C23 H23C 109.5
H23A C23 H23C 109.5
H23B C23 H23C 109.5
C26 C24 C4 113.7(3)
C26 C24 C25 107.5(3)
C4 C24 C25 110.4(3)
C26 C24 C27 108.4(3)
C4 C24 C27 108.8(2)
C25 C24 C27 107.8(3)
C24 C25 H25A 109.5
C24 C25 H25B 109.5
H25A C25 H25B 109.5
C24 C25 H25C 109.5
H25A C25 H25C 109.5
H25B C25 H25C 109.5
C24 C26 H26A 109.5
C24 C26 H26B 109.5
H26A C26 H26B 109.5
C24 C26 H26C 109.5
H26A C26 H26C 109.5
H26B C26 H26C 109.5
C24 C27 H27A 109.5
C24 C27 H27B 109.5
H27A C27 H27B 109.5
C24 C27 H27C 109.5
H27A C27 H27C 109.5
H27B C27 H27C 109.5
loop_
_geom_bond_atom_site_label_1
_geom_bond_atom_site_label_2
_geom_bond_distance
Zn1 O1 1.960(2)
Zn1 N1 2.106(2)
Zn1 N3 2.121(2)
Zn1 N2 2.170(2)
Zn1 Br1 2.4002(4)
O1 C1 1.308(3)
C1 C2 1.421(4)
C1 C6 1.425(4)
C2 C3 1.378(4)
C2 C20 1.535(4)
C3 C4 1.405(4)
C3 H3A 0.9300
C4 C5 1.379(4)
C4 C24 1.529(4)
C5 C6 1.383(4)
C5 H5A 0.9300
C6 N1 1.407(3)
C7 N1 1.291(3)
C7 C8 1.461(4)
C7 H7A 0.9300
C8 C9 1.393(4)
C8 C13 1.406(4)
C9 C10 1.370(4)
C9 H9A 0.9300
C10 C11 1.387(5)
C10 H10A 0.9300
C11 C12 1.377(4)
C11 H11A 0.9300
C12 C13 1.384(4)
C12 H12A 0.9300
C13 N2 1.421(3)
N2 C14 1.271(3)
C14 C15 1.467(4)
C14 H14A 0.9300
C15 N3 1.349(3)
C15 C16 1.383(4)
C16 C17 1.382(4)
C16 H16A 0.9300
C17 C18 1.369(5)
C17 H17A 0.9300
C18 C19 1.391(4)
C18 H18A 0.9300
C19 N3 1.324(4)
C19 H19A 0.9300
C20 C21 1.521(5)
C20 C22 1.521(5)
C20 C23 1.526(5)
C21 H21A 0.9600
C21 H21B 0.9600
C21 H21C 0.9600
C22 H22A 0.9600
C22 H22B 0.9600
C22 H22C 0.9600
C23 H23A 0.9600
C23 H23B 0.9600
C23 H23C 0.9600
C24 C26 1.520(4)
C24 C25 1.532(4)
C24 C27 1.548(4)
C25 H25A 0.9600
C25 H25B 0.9600
C25 H25C 0.9600
C26 H26A 0.9600
C26 H26B 0.9600
C26 H26C 0.9600
C27 H27A 0.9600
C27 H27B 0.9600
C27 H27C 0.9600
loop_
_geom_torsion_atom_site_label_1
_geom_torsion_atom_site_label_2
_geom_torsion_atom_site_label_3
_geom_torsion_atom_site_label_4
_geom_torsion
Zn1 O1 C1 C2 -172.8(2)
Zn1 O1 C1 C6 7.7(3)
O1 C1 C2 C3 -178.3(3)
C6 C1 C2 C3 1.2(4)
O1 C1 C2 C20 3.1(4)
C6 C1 C2 C20 -177.4(2)
C1 C2 C3 C4 -0.4(4)
C20 C2 C3 C4 178.1(3)
C2 C3 C4 C5 0.3(4)
C2 C3 C4 C24 178.6(3)
C3 C4 C5 C6 -1.1(4)
C24 C4 C5 C6 -179.4(3)
C4 C5 C6 N1 -174.5(3)
C4 C5 C6 C1 2.0(4)
O1 C1 C6 C5 177.6(2)
C2 C1 C6 C5 -2.0(4)
O1 C1 C6 N1 -5.5(4)
C2 C1 C6 N1 174.9(2)
C8 C7 N1 C6 171.7(2)
C8 C7 N1 Zn1 -19.1(4)
C5 C6 N1 C7 -11.8(4)
C1 C6 N1 C7 171.4(2)
C5 C6 N1 Zn1 177.6(2)
C1 C6 N1 Zn1 0.8(3)
N1 C7 C8 C9 170.1(3)
N1 C7 C8 C13 -14.1(4)
C13 C8 C9 C10 -0.3(4)
C7 C8 C9 C10 175.9(3)
C8 C9 C10 C11 -0.3(4)
C9 C10 C11 C12 0.7(5)
C10 C11 C12 C13 -0.6(4)
C11 C12 C13 C8 0.0(4)
C11 C12 C13 N2 179.4(3)
C9 C8 C13 C12 0.4(4)
C7 C8 C13 C12 -175.4(3)
C9 C8 C13 N2 -179.0(2)
C7 C8 C13 N2 5.3(4)
C12 C13 N2 C14 36.8(4)
C8 C13 N2 C14 -143.9(3)
C12 C13 N2 Zn1 -146.0(2)
C8 C13 N2 Zn1 33.3(3)
C13 N2 C14 C15 178.8(2)
Zn1 N2 C14 C15 1.4(3)
N2 C14 C15 N3 1.1(4)
N2 C14 C15 C16 -176.3(3)
N3 C15 C16 C17 0.4(5)
C14 C15 C16 C17 177.6(3)
C15 C16 C17 C18 -1.4(5)
C16 C17 C18 C19 2.1(5)
C17 C18 C19 N3 -2.0(5)
C18 C19 N3 C15 1.0(5)
C18 C19 N3 Zn1 -172.8(2)
C16 C15 N3 C19 -0.2(4)
C14 C15 N3 C19 -177.6(2)
C16 C15 N3 Zn1 174.3(2)
C14 C15 N3 Zn1 -3.1(3)
C3 C2 C20 C21 0.6(4)
C1 C2 C20 C21 179.2(3)
C3 C2 C20 C22 120.7(3)
C1 C2 C20 C22 -60.8(4)
C3 C2 C20 C23 -117.8(3)
C1 C2 C20 C23 60.8(4)
C5 C4 C24 C26 -163.9(3)
C3 C4 C24 C26 17.9(4)
C5 C4 C24 C25 -43.1(4)
C3 C4 C24 C25 138.7(3)
C5 C4 C24 C27 75.1(4)
C3 C4 C24 C27 -103.1(3)
