#------------------------------------------------------------------------------
#$Date: 2023-10-06 03:47:25 +0300 (Fri, 06 Oct 2023) $
#$Revision: 286798 $
#$URL: file:///home/coder/svn-repositories/cod/cif/7/15/95/7159530.cif $
#------------------------------------------------------------------------------
#
# This file is available in the Crystallography Open Database (COD),
# http://www.crystallography.net/
#
# All data on this site have been placed in the public domain by the
# contributors.
#
data_7159530
loop_
_publ_author_name
'Xue, Aiqi'
'Wei, Shiqiang'
'Wei, Xingfu'
'Huang, Yue'
'Qu, Jingping'
'Wang, Baomin'
_publ_section_title
;
 Squaramide-catalyzed asymmetric regioselective allylic alkylation of
 4-aminopyrazolones with Morita-Baylis-Hillman carbonates.
;
_journal_issue                   35
_journal_name_full               'Organic &amp; biomolecular chemistry'
_journal_page_first              7173
_journal_page_last               7179
_journal_paper_doi               10.1039/d3ob01098h
_journal_volume                  21
_journal_year                    2023
_chemical_absolute_configuration unk
_chemical_formula_moiety         'C41 H32 Cl N4 O5, 2(C H2 Cl2)'
_chemical_formula_sum            'C43 H36 Cl5 N4 O5'
_chemical_formula_weight         866.01
_space_group_crystal_system      triclinic
_space_group_IT_number           1
_space_group_name_Hall           'P 1'
_space_group_name_H-M_alt        'P 1'
_atom_sites_solution_hydrogens   geom
_atom_sites_solution_primary     dual
_audit_creation_date             2023-01-06
_audit_creation_method
;
Olex2 1.3
(compiled 2020.11.12 svn.r5f609507 for OlexSys, GUI svn.r6408)
;
_audit_update_record
;
2023-01-06 deposited with the CCDC.	2023-08-14 downloaded from the CCDC.
;
_cell_angle_alpha                70.975(3)
_cell_angle_beta                 81.134(3)
_cell_angle_gamma                85.203(3)
_cell_formula_units_Z            1
_cell_length_a                   9.8337(10)
_cell_length_b                   10.0674(10)
_cell_length_c                   11.4250(11)
_cell_measurement_reflns_used    9959
_cell_measurement_temperature    272.0
_cell_measurement_theta_max      26.381
_cell_measurement_theta_min      2.369
_cell_volume                     1055.84(18)
_computing_cell_refinement       'SAINT V8.40A (Bruker, 2019)'
_computing_data_reduction        'SAINT V8.40A (Bruker, 2019)'
_computing_molecular_graphics    'Olex2 1.3 (Dolomanov et al., 2009)'
_computing_publication_material  'Olex2 1.3 (Dolomanov et al., 2009)'
_computing_structure_refinement  'SHELXL 2018/3 (Sheldrick, 2015)'
_computing_structure_solution    'SHELXT 2018/2 (Sheldrick, 2018)'
_diffrn_ambient_temperature      272.0
_diffrn_measured_fraction_theta_full 0.998
_diffrn_measured_fraction_theta_max 0.996
_diffrn_measurement_device_type  'CCD area detector'
_diffrn_measurement_method       'phi and omega scans'
_diffrn_radiation_monochromator  graphite
_diffrn_radiation_type           MoK\a
_diffrn_radiation_wavelength     0.71073
_diffrn_reflns_av_R_equivalents  0.0438
_diffrn_reflns_av_unetI/netI     0.0601
_diffrn_reflns_Laue_measured_fraction_full 0.998
_diffrn_reflns_Laue_measured_fraction_max 0.996
_diffrn_reflns_limit_h_max       12
_diffrn_reflns_limit_h_min       -12
_diffrn_reflns_limit_k_max       12
_diffrn_reflns_limit_k_min       -12
_diffrn_reflns_limit_l_max       14
_diffrn_reflns_limit_l_min       -14
_diffrn_reflns_number            24859
_diffrn_reflns_point_group_measured_fraction_full 0.982
_diffrn_reflns_point_group_measured_fraction_max 0.977
_diffrn_reflns_theta_full        25.242
_diffrn_reflns_theta_max         26.460
_diffrn_reflns_theta_min         2.370
_diffrn_source_current           0.0
_diffrn_source_power             0.0
_diffrn_source_voltage           0.0
_exptl_absorpt_coefficient_mu    0.393
_exptl_absorpt_correction_T_max  0.7454
_exptl_absorpt_correction_T_min  0.6702
_exptl_absorpt_correction_type   none
_exptl_absorpt_process_details
;
SADABS-2016/2 (Bruker,2016/2) was used for absorption correction.
wR2(int) was 0.1544 before and 0.0898 after correction.
The Ratio of minimum to maximum transmission is 0.8991.
The \l/2 correction factor is Not present.
;
_exptl_crystal_colour            orange
_exptl_crystal_colour_primary    orange
_exptl_crystal_density_diffrn    1.362
_exptl_crystal_description       block
_exptl_crystal_F_000             447
_exptl_crystal_size_max          0.3
_exptl_crystal_size_mid          0.2
_exptl_crystal_size_min          0.18
_refine_diff_density_max         0.323
_refine_diff_density_min         -0.286
_refine_diff_density_rms         0.044
_refine_ls_abs_structure_details
;
 Flack x determined using 2149 quotients [(I+)-(I-)]/[(I+)+(I-)]
 (Parsons, Flack and Wagner, Acta Cryst. B69 (2013) 249-259).
;
_refine_ls_abs_structure_Flack   0.01(3)
_refine_ls_extinction_method     none
_refine_ls_goodness_of_fit_ref   1.037
_refine_ls_hydrogen_treatment    constr
_refine_ls_matrix_type           full
_refine_ls_number_parameters     522
_refine_ls_number_reflns         8548
_refine_ls_number_restraints     91
_refine_ls_restrained_S_all      1.062
_refine_ls_R_factor_all          0.1034
_refine_ls_R_factor_gt           0.0663
_refine_ls_shift/su_max          0.000
_refine_ls_shift/su_mean         0.000
_refine_ls_structure_factor_coef Fsqd
_refine_ls_weighting_details
'w=1/[\s^2^(Fo^2^)+(0.0549P)^2^+0.6109P] where P=(Fo^2^+2Fc^2^)/3'
_refine_ls_weighting_scheme      calc
_refine_ls_wR_factor_gt          0.1356
_refine_ls_wR_factor_ref         0.1498
_reflns_Friedel_coverage         0.961
_reflns_Friedel_fraction_full    0.967
_reflns_Friedel_fraction_max     0.957
_reflns_number_gt                5973
_reflns_number_total             8548
_reflns_threshold_expression     'I > 2\s(I)'
_cod_data_source_file            d3ob01098h2.cif
_cod_data_source_block           1_CCDC1
_cod_depositor_comments
'Adding full bibliography for 7159529--7159530.cif.'
_cod_database_code               7159530
_shelx_shelxl_version_number     2018/3
_shelx_space_group_comment
;
The symmetry employed for this shelxl refinement is uniquely defined
by the following loop, which should always be used as a source of
symmetry information in preference to the above space-group names.
They are only intended as comments.
;
_shelx_estimated_absorpt_t_max   0.933
_shelx_estimated_absorpt_t_min   0.891
_olex2_refinement_description
;
1. Fixed Uiso
 At 1.2 times of:
  All C(H) groups, All C(H,H) groups, All C(H,H,H,H) groups, All N(H) groups
 At 1.5 times of:
  All C(H,H,H) groups
2. Restrained distances
 Cl1-C1 \\sim Cl1A-C1
 with sigma of 0.02
 Cl-C1 \\sim ClA-C1
 with sigma of 0.02
3. Uiso/Uaniso restraints and constraints
Cl1A \\sim Cl1 \\sim C1 \\sim Cl \\sim ClA: within 2A with sigma of 0.01 and
sigma for terminal atoms of 0.02 within 2A
C01J \\sim C01G \\sim C00W \\sim C01F \\sim C01D \\sim C01C: within 2A with
sigma of 0.01 and sigma for terminal atoms of 0.02 within 2A
4. Rigid body (RIGU) restrains
 Cl, C1, Cl1
 with sigma for 1-2 distances of 0.001 and sigma for 1-3 distances of 0.001
 Cl1A, ClA, C1
 with sigma for 1-2 distances of 0.001 and sigma for 1-3 distances of 0.001
5. Others
 Sof(H1BC)=Sof(H1BD)=Sof(Cl1A)=Sof(ClA)=1-FVAR(1)
 Sof(Cl1)=Sof(Cl)=Sof(H1AB)=Sof(H1AA)=FVAR(1)
6.a Secondary CH2 refined with riding coordinates:
 C00P(H00B,H00C), C00S(H00D,H00E), C01K(H01M,H01N), C1(H1AB,H1AA), C1(H1BC,H1BD)
6.b Aromatic/amide H refined with riding coordinates:
 N009(H009), N00A(H00A), C00M(H00M), C00U(H00U), C00V(H00V), C00Y(H00Y),
 C00Z(H00Z), C010(H010), C011(H011), C012(H012), C013(H013), C014(H014),
 C015(H015), C016(H016), C017(H017), C018(H018), C01A(H01A), C01B(H01B),
 C01G(H01G), C01J(H01J), C01C(H01F), C01D(H01H), C01F(H01I), C01H(H01K),
 C01I(H01L)
6.c Fitted hexagon refined as free rotating group:
 C01G(C01J,C01C,C01D,C01F,C00W)
6.d Idealised Me refined as rotating group:
 C01E(H01C,H01D,H01E)
;
_shelx_res_file
;
TITL 1_a.res in P1
    1.res
    created by SHELXL-2018/3 at 12:56:01 on 06-Jan-2023
REM Old TITL 1 in P1
REM SHELXT solution in P1: R1 0.185, Rweak 0.137, Alpha 0.000
REM <I/s> 0.000 for 0 systematic absences, Orientation as input
REM Flack x = 0.133 ( 0.028 ) from 2397 Parsons' quotients
REM Formula found by SHELXT: C42 N2 O9 Cl3
CELL 0.71073 9.8337 10.0674 11.425 70.975 81.134 85.203
ZERR 1 0.001 0.001 0.0011 0.003 0.003 0.003
LATT -1
SFAC C H Cl N O
UNIT 43 36 5 4 5
SADI Cl1 C1 Cl1A C1
RIGU 0.001 0.001 Cl C1 Cl1
SADI Cl C1 ClA C1
RIGU 0.001 0.001 Cl1A ClA C1
SIMU 0.01 0.02 2 Cl1A Cl1 C1 Cl ClA
SIMU 0.01 0.02 2 C01J C01G C00W C01F C01D C01C

L.S. 20
PLAN  6
SIZE 0.3 0.2 0.18
TEMP -1.15
CONF
list 4
MORE -1
BOND $H
fmap 2 53
acta
OMIT 1 0 0
OMIT -1 0 0
OMIT 0 -1 0
REM <olex2.extras>
REM <HklSrc "%.\\1.hkl">
REM </olex2.extras>

WGHT    0.054900    0.610900
FVAR       1.17303   0.65334
CL01  3    1.051554    1.115929    0.457518    11.00000    0.08269    0.07163 =
         0.21201   -0.04715    0.03692   -0.03921
CL02  3    0.971417    0.976453   -0.047599    11.00000    0.10001    0.12877 =
         0.14951   -0.06323   -0.02759    0.01394
CL03  3    0.877535    0.987685    0.200577    11.00000    0.17136    0.15793 =
         0.10881   -0.03595   -0.05262    0.01587
PART 1
CL1   3    0.836403    0.457250    0.339473    21.00000    0.12245    0.26520 =
         0.11664   -0.07340   -0.01155    0.03929

PART 0
O005  5    0.591507    0.269268    0.645102    11.00000    0.03821    0.04565 =
         0.04972   -0.01884    0.00274   -0.00169
O006  5    0.393149    0.756510    0.617962    11.00000    0.05216    0.03874 =
         0.06068   -0.01372   -0.01316    0.00323
O007  5    0.292954    0.288595    0.580948    11.00000    0.05540    0.04986 =
         0.05918   -0.01822   -0.01698   -0.00534
O008  5    0.826040    0.442807    0.646314    11.00000    0.04250    0.04562 =
         0.06597   -0.01805   -0.00520    0.00525
N009  4    0.358646    0.478781    0.613699    11.00000    0.05190    0.03360 =
         0.04221   -0.01333   -0.01318   -0.00134
AFIX  43
H009  2    0.369041    0.568136    0.586221    11.00000   -1.20000
AFIX   0
N00A  4    0.314530    0.191645    0.879980    11.00000    0.04338    0.04283 =
         0.04155   -0.01106    0.00697   -0.00223
AFIX  43
H00A  2    0.264468    0.133799    0.940450    11.00000   -1.20000
AFIX   0
N00B  4    0.566474    0.910410    0.559472    11.00000    0.05459    0.03303 =
         0.04197   -0.01022   -0.00521    0.00274
O00C  5    0.733809    0.350828    0.844979    11.00000    0.06542    0.06253 =
         0.05496    0.00330   -0.02097    0.01000
N00D  4    0.438414    0.156982    0.816096    11.00000    0.04247    0.03452 =
         0.04130   -0.01040    0.00022    0.00135

PART 1
CL    3    0.615644    0.635564    0.253363    21.00000    0.14188    0.16561 =
         0.13439   -0.05060   -0.03801    0.03229

PART 0
C00F  1    0.303400    0.415141    0.545503    11.00000    0.03590    0.04211 =
         0.04537   -0.01344   -0.00464    0.00004
C00G  1    0.287915    0.323899    0.833512    11.00000    0.03978    0.04022 =
         0.04026   -0.01463   -0.00681   -0.00274
C00H  1    0.167319    0.392100    0.887546    11.00000    0.04207    0.04945 =
         0.04997   -0.02620   -0.01249    0.00364
C00I  1    0.514990    0.779940    0.608443    11.00000    0.05283    0.03986 =
         0.03858   -0.01875   -0.01078    0.00040
C00J  1    0.491502    0.268479    0.720987    11.00000    0.03902    0.03570 =
         0.03844   -0.01243   -0.00921    0.00088
C00K  1    0.258589    0.506112    0.425051    11.00000    0.03305    0.06243 =
         0.04205   -0.01388   -0.00712   -0.00575
C00L  1    0.399930    0.396883    0.732099    11.00000    0.03901    0.03904 =
         0.03713   -0.01397   -0.00960    0.00415
C00M  1    0.135799    0.534223    0.838113    11.00000    0.05442    0.05696 =
         0.05927   -0.01618   -0.00946    0.00995
AFIX  43
H00M  2    0.189204    0.588627    0.766798    11.00000   -1.20000
AFIX   0
C00N  1    0.756674    0.764301    0.595149    11.00000    0.05432    0.04299 =
         0.04074   -0.01631   -0.00778   -0.00257
C00O  1    0.484939    0.014292    0.851127    11.00000    0.05144    0.04082 =
         0.04308   -0.01944   -0.00555    0.00375
C00P  1    0.478602    0.486539    0.784180    11.00000    0.04484    0.03286 =
         0.03531   -0.01148   -0.00876    0.00328
AFIX  23
H00B  2    0.419258    0.566578    0.790419    11.00000   -1.20000
H00C  2    0.493685    0.430815    0.868409    11.00000   -1.20000
AFIX   0
C00Q  1    0.731163    0.435415    0.743719    11.00000    0.03781    0.04060 =
         0.05729   -0.01705   -0.01061   -0.00566
C00R  1    0.711264    0.902654    0.551537    11.00000    0.05694    0.03781 =
         0.03983   -0.01523   -0.00446   -0.00451
C00S  1    0.482439    1.039026    0.514558    11.00000    0.06653    0.03334 =
         0.05877   -0.01786   -0.01113    0.00682
AFIX  23
H00D  2    0.513884    1.112175    0.540984    11.00000   -1.20000
H00E  2    0.387425    1.021680    0.551816    11.00000   -1.20000
AFIX   0
C00T  1    0.633748    0.677698    0.641123    11.00000    0.04750    0.03606 =
         0.03405   -0.01276   -0.00787   -0.00124
C00U  1    0.024797    0.595685    0.894657    11.00000    0.06156    0.06819 =
         0.08043   -0.03075   -0.01403    0.02780
AFIX  43
H00U  2    0.004958    0.691500    0.861595    11.00000   -1.20000
AFIX   0
C00V  1    0.393655   -0.091283    0.906328    11.00000    0.06885    0.04392 =
         0.07636   -0.01628    0.00608   -0.00111
AFIX  43
H00V  2    0.299714   -0.070148    0.918558    11.00000   -1.20000
AFIX   0
C00X  1    0.615404    0.541327    0.712740    11.00000    0.04085    0.03958 =
         0.03777   -0.01678   -0.01055    0.00213
C00Y  1    0.622744   -0.017909    0.831499    11.00000    0.05824    0.04399 =
         0.05412   -0.01422   -0.01421    0.00503
AFIX  43
H00Y  2    0.684980    0.053278    0.793649    11.00000   -1.20000
AFIX   0
C00Z  1    0.579496   -0.262095    0.924725    11.00000    0.10636    0.04684 =
         0.05583   -0.01824   -0.01775    0.02141
AFIX  43
H00Z  2    0.611251   -0.355375    0.950224    11.00000   -1.20000
AFIX   0
C010  1    0.442455   -0.229110    0.943545    11.00000    0.11386    0.04071 =
         0.07812   -0.00913    0.01691   -0.01054
AFIX  43
H010  2    0.380766   -0.300668    0.982115    11.00000   -1.20000
AFIX   0
C011  1    0.237400    0.442284    0.340224    11.00000    0.06727    0.07627 =
         0.06067   -0.01933   -0.01565   -0.01932
AFIX  43
H011  2    0.253329    0.345811    0.357970    11.00000   -1.20000
AFIX   0
C012  1    0.895956    0.736609    0.599585    11.00000    0.05258    0.04624 =
         0.08204   -0.02366   -0.00429   -0.00577
AFIX  43
H012  2    0.929090    0.644324    0.630460    11.00000   -1.20000
AFIX   0
C013  1    0.796819    1.014407    0.508739    11.00000    0.07140    0.04370 =
         0.07011   -0.02124    0.00329   -0.00888
AFIX  43
H013  2    0.763173    1.106701    0.479387    11.00000   -1.20000
AFIX   0
C014  1    0.085491    0.313450    0.993823    11.00000    0.05451    0.06163 =
         0.06559   -0.02890    0.00086    0.00125
AFIX  43
H014  2    0.105230    0.217862    1.028618    11.00000   -1.20000
AFIX   0
C015  1    0.192346    0.521417    0.228301    11.00000    0.09180    0.11795 =
         0.05878   -0.02511   -0.03337   -0.01420
AFIX  43
H015  2    0.179954    0.478402    0.170163    11.00000   -1.20000
AFIX   0
C016  1    0.232930    0.649242    0.399095    11.00000    0.07894    0.07092 =
         0.06782   -0.02877   -0.03301    0.01816
AFIX  43
H016  2    0.247218    0.693003    0.456168    11.00000   -1.20000
AFIX   0
C017  1    0.986288    0.845218    0.558420    11.00000    0.05157    0.06247 =
         0.10809   -0.04079    0.00452   -0.00719
AFIX  43
H017  2    1.080126    0.827011    0.561879    11.00000   -1.20000
AFIX   0
C018  1   -0.025334    0.376896    1.048103    11.00000    0.06068    0.08924 =
         0.06935   -0.03793    0.01461   -0.00045
AFIX  43
H018  2   -0.079843    0.323659    1.119241    11.00000   -1.20000
AFIX   0
C019  1    0.934836    0.982002    0.511793    11.00000    0.06778    0.05655 =
         0.08939   -0.03067    0.01664   -0.03120
C01A  1    0.669061   -0.157600    0.868472    11.00000    0.07051    0.06092 =
         0.06528   -0.02372   -0.01914    0.02192
AFIX  43
H01A  2    0.762614   -0.179660    0.854457    11.00000   -1.20000
AFIX   0
C01B  1   -0.055218    0.517279    0.997862    11.00000    0.04930    0.10262 =
         0.08977   -0.05777   -0.00930    0.02347
AFIX  43
H01B  2   -0.130365    0.559129    1.034354    11.00000   -1.20000
AFIX   0
C01E  1    0.935236    0.335396    0.665073    11.00000    0.05006    0.06738 =
         0.11137   -0.03914   -0.01131    0.01050
AFIX 137
H01C  2    0.996555    0.348965    0.588457    11.00000   -1.50000
H01D  2    0.896284    0.244386    0.690411    11.00000   -1.50000
H01E  2    0.985313    0.341578    0.728797    11.00000   -1.50000
AFIX  66
C01G  1    0.442465    1.005240    0.314473    11.00000    0.12821    0.07133 =
         0.06333   -0.00530   -0.03194   -0.02244
AFIX  43
H01G  2    0.404376    0.919356    0.361296    11.00000   -1.20000
AFIX  65
C01J  1    0.452115    1.049649    0.184920    11.00000    0.15521    0.10690 =
         0.06460   -0.01338   -0.03741   -0.02827
AFIX  43
H01J  2    0.420483    0.993476    0.145063    11.00000   -1.20000
AFIX  65
C01C  1    0.509044    1.178013    0.114938    11.00000    0.13585    0.09846 =
         0.06194    0.00906   -0.03466   -0.01200
AFIX  43
H01F  2    0.515500    1.207724    0.028258    11.00000   -1.20000
AFIX  65
C01D  1    0.556323    1.261970    0.174509    11.00000    0.13031    0.07510 =
         0.07912    0.02554   -0.02500   -0.02159
AFIX  43
H01H  2    0.594411    1.347854    0.127686    11.00000   -1.20000
AFIX  65
C01F  1    0.546673    1.217563    0.304062    11.00000    0.11581    0.05129 =
         0.07622    0.00117   -0.02502   -0.01272
AFIX  43
H01I  2    0.578306    1.273737    0.343918    11.00000   -1.20000
AFIX  65
C00W  1    0.489745    1.089199    0.374045    11.00000    0.06495    0.04428 =
         0.05248   -0.00618   -0.01588    0.00037
AFIX   0
C01H  1    0.185680    0.727483    0.287319    11.00000    0.10602    0.07877 =
         0.08554   -0.00749   -0.04714    0.02801
AFIX  43
H01K  2    0.167388    0.823646    0.269600    11.00000   -1.20000
AFIX   0
C01I  1    0.166200    0.662079    0.203357    11.00000    0.09243    0.13009 =
         0.05413   -0.00706   -0.03872    0.00384
AFIX  43
H01L  2    0.134765    0.714448    0.128519    11.00000   -1.20000
AFIX   0

C01K  1    0.835479    1.015453    0.052974    11.00000    0.11368    0.14559 =
         0.11948   -0.05972   -0.04382    0.02127
AFIX  23
H01M  2    0.805937    1.113066    0.018321    11.00000   -1.20000
H01N  2    0.758768    0.957714    0.059376    11.00000   -1.20000
AFIX   0

C1    1    0.710690    0.561861    0.371973    11.00000    0.18213    0.18213 =
         0.11041   -0.07640   -0.01142    0.03606
PART 1
AFIX  23
H1AB  2    0.748854    0.636099    0.392348    21.00000   -1.20000
H1AA  2    0.650723    0.509077    0.445227    21.00000   -1.20000
AFIX  23
PART 2
H1BC  2    0.648053    0.504724    0.440558   -21.00000   -1.20000
H1BD  2    0.771289    0.599597    0.411818   -21.00000   -1.20000
AFIX   0
CL1A  3    0.815074    0.436871    0.331074   -21.00000    0.14654    0.10218 =
         0.16174   -0.08727    0.07746   -0.05506
CLA   3    0.613944    0.696710    0.316219   -21.00000    0.18154    0.19269 =
         0.11942   -0.03490   -0.01361    0.04022
HKLF 4




REM  1_a.res in P1
REM wR2 = 0.1498, GooF = S = 1.037, Restrained GooF = 1.062 for all data
REM R1 = 0.0663 for 5973 Fo > 4sig(Fo) and 0.1034 for all 8548 data
REM 522 parameters refined using 91 restraints

END

WGHT      0.0540      0.6155

REM Highest difference peak  0.323,  deepest hole -0.286,  1-sigma level  0.044
Q1    1   0.8246  0.6082  0.3254  11.00000  0.05    0.32
Q2    1   0.7994  0.5330  0.2597  11.00000  0.05    0.22
Q3    1   0.8365  0.4205  0.3521  11.00000  0.05    0.19
Q4    1   0.2619 -0.2633  0.8561  11.00000  0.05    0.18
Q5    1   0.7412  0.7196  0.2999  11.00000  0.05    0.18
Q6    1   0.6990  0.6955  0.2367  11.00000  0.05    0.17
;
_shelx_res_checksum              54237
_olex2_submission_special_instructions 'No special instructions were received'
loop_
_space_group_symop_operation_xyz
'x, y, z'
loop_
_atom_site_label
_atom_site_type_symbol
_atom_site_fract_x
_atom_site_fract_y
_atom_site_fract_z
_atom_site_U_iso_or_equiv
_atom_site_adp_type
_atom_site_occupancy
_atom_site_site_symmetry_order
_atom_site_calc_flag
_atom_site_refinement_flags_posn
_atom_site_refinement_flags_adp
_atom_site_refinement_flags_occupancy
_atom_site_disorder_assembly
_atom_site_disorder_group
Cl01 Cl 1.0516(2) 1.1159(2) 0.4575(3) 0.1257(11) Uani 1 1 d . . . . .
Cl02 Cl 0.9714(3) 0.9765(3) -0.0476(3) 0.1213(9) Uani 1 1 d . . . . .
Cl03 Cl 0.8775(4) 0.9877(4) 0.2006(3) 0.1452(12) Uani 1 1 d . . . . .
Cl1 Cl 0.8364(10) 0.4572(13) 0.3395(10) 0.168(4) Uani 0.653(17) 1 d D U P A 1
O005 O 0.5915(4) 0.2693(4) 0.6451(3) 0.0446(9) Uani 1 1 d . . . . .
O006 O 0.3931(4) 0.7565(4) 0.6180(4) 0.0507(9) Uani 1 1 d . . . . .
O007 O 0.2930(4) 0.2886(4) 0.5809(4) 0.0534(10) Uani 1 1 d . . . . .
O008 O 0.8260(4) 0.4428(4) 0.6463(4) 0.0519(10) Uani 1 1 d . . . . .
N009 N 0.3586(4) 0.4788(4) 0.6137(4) 0.0415(10) Uani 1 1 d . . . . .
H009 H 0.369041 0.568136 0.586221 0.050 Uiso 1 1 calc R U . . .
N00A N 0.3145(4) 0.1916(5) 0.8800(4) 0.0445(11) Uani 1 1 d . . . . .
H00A H 0.264468 0.133799 0.940450 0.053 Uiso 1 1 calc R U . . .
N00B N 0.5665(5) 0.9104(4) 0.5595(4) 0.0440(11) Uani 1 1 d . . . . .
O00C O 0.7338(4) 0.3508(5) 0.8450(4) 0.0657(12) Uani 1 1 d . . . . .
N00D N 0.4384(4) 0.1570(4) 0.8161(4) 0.0407(10) Uani 1 1 d . . . . .
Cl Cl 0.6156(6) 0.6356(8) 0.2534(8) 0.147(3) Uani 0.653(17) 1 d D U P A 1
C00F C 0.3034(5) 0.4151(6) 0.5455(5) 0.0414(12) Uani 1 1 d . . . . .
C00G C 0.2879(5) 0.3239(5) 0.8335(5) 0.0394(12) Uani 1 1 d . . . . .
C00H C 0.1673(5) 0.3921(6) 0.8875(5) 0.0442(13) Uani 1 1 d . . . . .
C00I C 0.5150(6) 0.7799(5) 0.6084(5) 0.0418(12) Uani 1 1 d . . . . .
C00J C 0.4915(5) 0.2685(5) 0.7210(5) 0.0372(11) Uani 1 1 d . . . . .
C00K C 0.2586(5) 0.5061(6) 0.4251(5) 0.0460(13) Uani 1 1 d . . . . .
C00L C 0.3999(5) 0.3969(5) 0.7321(4) 0.0378(11) Uani 1 1 d . . . . .
C00M C 0.1358(6) 0.5342(7) 0.8381(6) 0.0580(15) Uani 1 1 d . . . . .
H00M H 0.189204 0.588627 0.766798 0.070 Uiso 1 1 calc R U . . .
C00N C 0.7567(6) 0.7643(6) 0.5951(5) 0.0451(13) Uani 1 1 d . . . . .
C00O C 0.4849(6) 0.0143(6) 0.8511(5) 0.0440(13) Uani 1 1 d . . . . .
C00P C 0.4786(5) 0.4865(5) 0.7842(5) 0.0374(11) Uani 1 1 d . . . . .
H00B H 0.419258 0.566578 0.790419 0.045 Uiso 1 1 calc R U . . .
H00C H 0.493685 0.430815 0.868409 0.045 Uiso 1 1 calc R U . . .
C00Q C 0.7312(5) 0.4354(6) 0.7437(6) 0.0441(13) Uani 1 1 d . . . . .
C00R C 0.7113(6) 0.9027(5) 0.5515(5) 0.0442(13) Uani 1 1 d . . . . .
C00S C 0.4824(6) 1.0390(6) 0.5146(5) 0.0523(14) Uani 1 1 d . . . . .
H00D H 0.513884 1.112175 0.540984 0.063 Uiso 1 1 calc R U . . .
H00E H 0.387425 1.021680 0.551816 0.063 Uiso 1 1 calc R U . . .
C00T C 0.6337(5) 0.6777(5) 0.6411(5) 0.0386(11) Uani 1 1 d . . . . .
C00U C 0.0248(7) 0.5957(8) 0.8947(7) 0.0696(19) Uani 1 1 d . . . . .
H00U H 0.004958 0.691500 0.861595 0.084 Uiso 1 1 calc R U . . .
C00V C 0.3937(7) -0.0913(6) 0.9063(6) 0.0656(18) Uani 1 1 d . . . . .
H00V H 0.299714 -0.070148 0.918558 0.079 Uiso 1 1 calc R U . . .
C00X C 0.6154(5) 0.5413(5) 0.7127(5) 0.0379(11) Uani 1 1 d . . . . .
C00Y C 0.6227(6) -0.0179(6) 0.8315(6) 0.0521(14) Uani 1 1 d . . . . .
H00Y H 0.684980 0.053278 0.793649 0.063 Uiso 1 1 calc R U . . .
C00Z C 0.5795(9) -0.2621(7) 0.9247(6) 0.070(2) Uani 1 1 d . . . . .
H00Z H 0.611251 -0.355375 0.950224 0.084 Uiso 1 1 calc R U . . .
C010 C 0.4425(10) -0.2291(7) 0.9435(7) 0.083(2) Uani 1 1 d . . . . .
H010 H 0.380766 -0.300668 0.982115 0.099 Uiso 1 1 calc R U . . .
C011 C 0.2374(7) 0.4423(8) 0.3402(6) 0.0669(18) Uani 1 1 d . . . . .
H011 H 0.253329 0.345811 0.357970 0.080 Uiso 1 1 calc R U . . .
C012 C 0.8960(6) 0.7366(6) 0.5996(6) 0.0598(16) Uani 1 1 d . . . . .
H012 H 0.929090 0.644324 0.630460 0.072 Uiso 1 1 calc R U . . .
C013 C 0.7968(7) 1.0144(7) 0.5087(6) 0.0620(17) Uani 1 1 d . . . . .
H013 H 0.763173 1.106701 0.479387 0.074 Uiso 1 1 calc R U . . .
C014 C 0.0855(6) 0.3134(7) 0.9938(6) 0.0596(16) Uani 1 1 d . . . . .
H014 H 0.105230 0.217862 1.028618 0.072 Uiso 1 1 calc R U . . .
C015 C 0.1923(9) 0.5214(11) 0.2283(7) 0.087(2) Uani 1 1 d . . . . .
H015 H 0.179954 0.478402 0.170163 0.104 Uiso 1 1 calc R U . . .
C016 C 0.2329(7) 0.6492(7) 0.3991(7) 0.0696(19) Uani 1 1 d . . . . .
H016 H 0.247218 0.693003 0.456168 0.084 Uiso 1 1 calc R U . . .
C017 C 0.9863(7) 0.8452(7) 0.5584(7) 0.072(2) Uani 1 1 d . . . . .
H017 H 1.080126 0.827011 0.561879 0.086 Uiso 1 1 calc R U . . .
C018 C -0.0253(7) 0.3769(9) 1.0481(7) 0.073(2) Uani 1 1 d . . . . .
H018 H -0.079843 0.323659 1.119241 0.087 Uiso 1 1 calc R U . . .
C019 C 0.9348(8) 0.9820(7) 0.5118(7) 0.071(2) Uani 1 1 d . . . . .
C01A C 0.6691(8) -0.1576(7) 0.8685(6) 0.0650(18) Uani 1 1 d . . . . .
H01A H 0.762614 -0.179660 0.854457 0.078 Uiso 1 1 calc R U . . .
C01B C -0.0552(7) 0.5173(9) 0.9979(7) 0.075(2) Uani 1 1 d . . . . .
H01B H -0.130365 0.559129 1.034354 0.091 Uiso 1 1 calc R U . . .
C01E C 0.9352(7) 0.3354(8) 0.6651(8) 0.074(2) Uani 1 1 d . . . . .
H01C H 0.996555 0.348965 0.588457 0.112 Uiso 1 1 calc R U . . .
H01D H 0.896284 0.244386 0.690411 0.112 Uiso 1 1 calc R U . . .
H01E H 0.985313 0.341578 0.728797 0.112 Uiso 1 1 calc R U . . .
C01G C 0.4425(6) 1.0052(4) 0.3145(4) 0.088(2) Uani 1 1 d G U . . .
H01G H 0.404376 0.919356 0.361296 0.106 Uiso 1 1 calc R U . . .
C01J C 0.4521(7) 1.0496(6) 0.1849(4) 0.108(3) Uani 1 1 d G U . . .
H01J H 0.420483 0.993476 0.145063 0.130 Uiso 1 1 calc R U . . .
C01C C 0.5090(7) 1.1780(6) 0.1149(3) 0.104(3) Uani 1 1 d G U . . .
H01F H 0.515500 1.207724 0.028258 0.125 Uiso 1 1 calc R U . . .
C01D C 0.5563(7) 1.2620(5) 0.1745(4) 0.105(3) Uani 1 1 d G U . . .
H01H H 0.594411 1.347854 0.127686 0.126 Uiso 1 1 calc R U . . .
C01F C 0.5467(6) 1.2176(4) 0.3041(5) 0.084(2) Uani 1 1 d G U . . .
H01I H 0.578306 1.273737 0.343918 0.101 Uiso 1 1 calc R U . . .
C00W C 0.4897(5) 1.0892(4) 0.3740(3) 0.0554(14) Uani 1 1 d G U . . .
C01H C 0.1857(9) 0.7275(9) 0.2873(8) 0.093(3) Uani 1 1 d . . . . .
H01K H 0.167388 0.823646 0.269600 0.111 Uiso 1 1 calc R U . . .
C01I C 0.1662(9) 0.6621(12) 0.2034(7) 0.095(3) Uani 1 1 d . . . . .
H01L H 0.134765 0.714448 0.128519 0.114 Uiso 1 1 calc R U . . .
C01K C 0.8355(11) 1.0155(13) 0.0530(10) 0.120(3) Uani 1 1 d . . . . .
H01M H 0.805937 1.113066 0.018321 0.144 Uiso 1 1 calc R U . . .
H01N H 0.758768 0.957714 0.059376 0.144 Uiso 1 1 calc R U . . .
C1 C 0.7107(15) 0.5619(16) 0.3720(11) 0.154(4) Uani 1 1 d D U . . .
H1AB H 0.748854 0.636099 0.392348 0.185 Uiso 0.653(17) 1 calc R U P A 1
H1AA H 0.650723 0.509077 0.445227 0.185 Uiso 0.653(17) 1 calc R U P A 1
H1BC H 0.648053 0.504724 0.440558 0.185 Uiso 0.347(17) 1 calc R U P A 2
H1BD H 0.771289 0.599597 0.411818 0.185 Uiso 0.347(17) 1 calc R U P A 2
Cl1A Cl 0.8151(16) 0.4369(13) 0.3311(18) 0.134(5) Uani 0.347(17) 1 d D U P A 2
ClA Cl 0.6139(15) 0.6967(19) 0.3162(15) 0.172(7) Uani 0.347(17) 1 d D U P A 2
loop_
_atom_site_aniso_label
_atom_site_aniso_U_11
_atom_site_aniso_U_22
_atom_site_aniso_U_33
_atom_site_aniso_U_23
_atom_site_aniso_U_13
_atom_site_aniso_U_12
Cl01 0.0827(14) 0.0716(13) 0.212(3) -0.0472(16) 0.0369(16) -0.0392(11)
Cl02 0.1000(17) 0.129(2) 0.150(2) -0.0632(19) -0.0276(16) 0.0139(15)
Cl03 0.171(3) 0.158(3) 0.109(2) -0.0359(19) -0.053(2) 0.016(2)
Cl1 0.122(5) 0.265(9) 0.117(5) -0.073(6) -0.012(4) 0.039(6)
O005 0.038(2) 0.046(2) 0.050(2) -0.0188(18) 0.0027(17) -0.0017(16)
O006 0.052(2) 0.039(2) 0.061(3) -0.0137(19) -0.0132(19) 0.0032(17)
O007 0.055(2) 0.050(3) 0.059(2) -0.018(2) -0.0170(19) -0.0053(19)
O008 0.043(2) 0.046(2) 0.066(3) -0.018(2) -0.005(2) 0.0053(17)
N009 0.052(3) 0.034(2) 0.042(2) -0.013(2) -0.013(2) -0.0013(19)
N00A 0.043(3) 0.043(3) 0.042(2) -0.011(2) 0.007(2) -0.002(2)
N00B 0.055(3) 0.033(2) 0.042(3) -0.010(2) -0.005(2) 0.003(2)
O00C 0.065(3) 0.063(3) 0.055(3) 0.003(2) -0.021(2) 0.010(2)
N00D 0.042(2) 0.035(2) 0.041(2) -0.010(2) 0.0002(19) 0.0013(19)
Cl 0.142(4) 0.166(5) 0.134(5) -0.051(4) -0.038(3) 0.032(3)
C00F 0.036(3) 0.042(3) 0.045(3) -0.013(3) -0.005(2) 0.000(2)
C00G 0.040(3) 0.040(3) 0.040(3) -0.015(2) -0.007(2) -0.003(2)
C00H 0.042(3) 0.049(3) 0.050(3) -0.026(3) -0.012(2) 0.004(2)
C00I 0.053(4) 0.040(3) 0.039(3) -0.019(3) -0.011(2) 0.000(3)
C00J 0.039(3) 0.036(3) 0.038(3) -0.012(2) -0.009(2) 0.001(2)
C00K 0.033(3) 0.062(4) 0.042(3) -0.014(3) -0.007(2) -0.006(3)
C00L 0.039(3) 0.039(3) 0.037(3) -0.014(2) -0.010(2) 0.004(2)
C00M 0.054(4) 0.057(4) 0.059(4) -0.016(3) -0.009(3) 0.010(3)
C00N 0.054(4) 0.043(3) 0.041(3) -0.016(2) -0.008(2) -0.003(3)
C00O 0.051(3) 0.041(3) 0.043(3) -0.019(3) -0.006(2) 0.004(3)
C00P 0.045(3) 0.033(3) 0.035(3) -0.011(2) -0.009(2) 0.003(2)
C00Q 0.038(3) 0.041(3) 0.057(4) -0.017(3) -0.011(3) -0.006(2)
C00R 0.057(4) 0.038(3) 0.040(3) -0.015(2) -0.004(2) -0.005(3)
C00S 0.067(4) 0.033(3) 0.059(4) -0.018(3) -0.011(3) 0.007(3)
C00T 0.048(3) 0.036(3) 0.034(3) -0.013(2) -0.008(2) -0.001(2)
C00U 0.062(4) 0.068(4) 0.080(5) -0.031(4) -0.014(4) 0.028(3)
C00V 0.069(4) 0.044(4) 0.076(5) -0.016(3) 0.006(4) -0.001(3)
C00X 0.041(3) 0.040(3) 0.038(3) -0.017(2) -0.011(2) 0.002(2)
C00Y 0.058(4) 0.044(3) 0.054(4) -0.014(3) -0.014(3) 0.005(3)
C00Z 0.106(6) 0.047(4) 0.056(4) -0.018(3) -0.018(4) 0.021(4)
C010 0.114(7) 0.041(4) 0.078(5) -0.009(4) 0.017(5) -0.011(4)
C011 0.067(4) 0.076(5) 0.061(4) -0.019(4) -0.016(3) -0.019(4)
C012 0.053(4) 0.046(4) 0.082(5) -0.024(3) -0.004(3) -0.006(3)
C013 0.071(5) 0.044(3) 0.070(4) -0.021(3) 0.003(3) -0.009(3)
C014 0.055(4) 0.062(4) 0.066(4) -0.029(3) 0.001(3) 0.001(3)
C015 0.092(6) 0.118(7) 0.059(5) -0.025(5) -0.033(4) -0.014(5)
C016 0.079(5) 0.071(5) 0.068(4) -0.029(4) -0.033(4) 0.018(4)
C017 0.052(4) 0.062(4) 0.108(6) -0.041(4) 0.005(4) -0.007(3)
C018 0.061(4) 0.089(5) 0.069(4) -0.038(4) 0.015(3) 0.000(4)
C019 0.068(5) 0.057(4) 0.089(5) -0.031(4) 0.017(4) -0.031(3)
C01A 0.071(4) 0.061(4) 0.065(4) -0.024(3) -0.019(3) 0.022(4)
C01B 0.049(4) 0.103(6) 0.090(5) -0.058(5) -0.009(4) 0.023(4)
C01E 0.050(4) 0.067(4) 0.111(6) -0.039(4) -0.011(4) 0.010(3)
C01G 0.128(6) 0.071(5) 0.063(4) -0.005(4) -0.032(4) -0.022(4)
C01J 0.155(7) 0.107(6) 0.065(5) -0.013(4) -0.037(5) -0.028(6)
C01C 0.136(7) 0.098(6) 0.062(5) 0.009(4) -0.035(5) -0.012(5)
C01D 0.130(6) 0.075(5) 0.079(5) 0.026(4) -0.025(5) -0.022(5)
C01F 0.116(6) 0.051(4) 0.076(4) 0.001(3) -0.025(4) -0.013(4)
C00W 0.065(4) 0.044(3) 0.052(3) -0.006(3) -0.016(3) 0.000(3)
C01H 0.106(6) 0.079(5) 0.086(6) -0.007(5) -0.047(5) 0.028(5)
C01I 0.092(6) 0.130(8) 0.054(4) -0.007(5) -0.039(4) 0.004(5)
C01K 0.114(8) 0.146(9) 0.119(8) -0.060(7) -0.044(6) 0.021(7)
C1 0.182(9) 0.182(8) 0.110(7) -0.076(6) -0.011(7) 0.036(8)
Cl1A 0.147(8) 0.102(6) 0.162(10) -0.087(6) 0.077(7) -0.055(5)
ClA 0.182(9) 0.193(11) 0.119(9) -0.035(8) -0.014(7) 0.040(8)
loop_
_atom_type_symbol
_atom_type_description
_atom_type_scat_dispersion_real
_atom_type_scat_dispersion_imag
_atom_type_scat_source
C C 0.0033 0.0016 'International Tables Vol C Tables 4.2.6.8 and 6.1.1.4'
H H 0.0000 0.0000 'International Tables Vol C Tables 4.2.6.8 and 6.1.1.4'
Cl Cl 0.1484 0.1585 'International Tables Vol C Tables 4.2.6.8 and 6.1.1.4'
N N 0.0061 0.0033 'International Tables Vol C Tables 4.2.6.8 and 6.1.1.4'
O O 0.0106 0.0060 'International Tables Vol C Tables 4.2.6.8 and 6.1.1.4'
loop_
_geom_angle_atom_site_label_1
_geom_angle_atom_site_label_2
_geom_angle_atom_site_label_3
_geom_angle
_geom_angle_site_symmetry_1
_geom_angle_site_symmetry_3
_geom_angle_publ_flag
C00Q O008 C01E 116.3(5) . . ?
C00F N009 H009 120.1 . . ?
C00F N009 C00L 119.8(4) . . ?
C00L N009 H009 120.1 . . ?
N00D N00A H00A 125.6 . . ?
C00G N00A H00A 125.6 . . ?
C00G N00A N00D 108.8(4) . . ?
C00I N00B C00R 110.4(4) . . ?
C00I N00B C00S 124.0(5) . . ?
C00R N00B C00S 125.5(4) . . ?
N00A N00D C00O 117.9(4) . . ?
C00J N00D N00A 112.6(4) . . ?
C00J N00D C00O 129.3(4) . . ?
O007 C00F N009 120.7(5) . . ?
O007 C00F C00K 121.8(5) . . ?
N009 C00F C00K 117.5(5) . . ?
N00A C00G C00H 120.9(5) . . ?
N00A C00G C00L 112.4(4) . . ?
C00H C00G C00L 126.4(5) . . ?
C00M C00H C00G 121.9(5) . . ?
C00M C00H C014 118.6(5) . . ?
C014 C00H C00G 119.5(5) . . ?
O006 C00I N00B 123.6(5) . . ?
O006 C00I C00T 128.9(5) . . ?
N00B C00I C00T 107.4(5) . . ?
O005 C00J N00D 127.8(5) . . ?
O005 C00J C00L 126.5(4) . . ?
N00D C00J C00L 105.7(4) . . ?
C011 C00K C00F 117.7(6) . . ?
C011 C00K C016 119.8(6) . . ?
C016 C00K C00F 122.4(5) . . ?
N009 C00L C00G 117.0(4) . . ?
N009 C00L C00J 111.1(4) . . ?
N009 C00L C00P 110.9(4) . . ?
C00G C00L C00J 99.9(4) . . ?
C00G C00L C00P 108.0(4) . . ?
C00J C00L C00P 109.2(4) . . ?
C00H C00M H00M 119.9 . . ?
C00H C00M C00U 120.2(6) . . ?
C00U C00M H00M 119.9 . . ?
C00R C00N C00T 107.4(5) . . ?
C00R C00N C012 118.1(5) . . ?
C012 C00N C00T 134.1(5) . . ?
C00V C00O N00D 120.7(5) . . ?
C00Y C00O N00D 119.4(5) . . ?
C00Y C00O C00V 119.9(5) . . ?
C00L C00P H00B 107.9 . . ?
C00L C00P H00C 107.9 . . ?
H00B C00P H00C 107.2 . . ?
C00X C00P C00L 117.8(4) . . ?
C00X C00P H00B 107.9 . . ?
C00X C00P H00C 107.9 . . ?
O008 C00Q C00X 112.7(5) . . ?
O00C C00Q O008 124.4(5) . . ?
O00C C00Q C00X 122.8(5) . . ?
C00N C00R N00B 109.9(4) . . ?
C013 C00R N00B 126.2(5) . . ?
C013 C00R C00N 123.9(6) . . ?
N00B C00S H00D 109.2 . . ?
N00B C00S H00E 109.2 . . ?
N00B C00S C00W 112.0(4) . . ?
H00D C00S H00E 107.9 . . ?
C00W C00S H00D 109.2 . . ?
C00W C00S H00E 109.2 . . ?
C00N C00T C00I 104.6(4) . . ?
C00X C00T C00I 122.1(5) . . ?
C00X C00T C00N 132.7(5) . . ?
C00M C00U H00U 119.7 . . ?
C01B C00U C00M 120.6(6) . . ?
C01B C00U H00U 119.7 . . ?
C00O C00V H00V 120.3 . . ?
C00O C00V C010 119.4(7) . . ?
C010 C00V H00V 120.3 . . ?
C00Q C00X C00P 112.6(4) . . ?
C00T C00X C00P 123.3(4) . . ?
C00T C00X C00Q 123.6(5) . . ?
C00O C00Y H00Y 120.2 . . ?
C00O C00Y C01A 119.6(6) . . ?
C01A C00Y H00Y 120.2 . . ?
C010 C00Z H00Z 120.3 . . ?
C01A C00Z H00Z 120.3 . . ?
C01A C00Z C010 119.3(6) . . ?
C00V C010 H010 119.5 . . ?
C00Z C010 C00V 121.1(7) . . ?
C00Z C010 H010 119.5 . . ?
C00K C011 H011 120.0 . . ?
C00K C011 C015 120.1(7) . . ?
C015 C011 H011 120.0 . . ?
C00N C012 H012 119.8 . . ?
C017 C012 C00N 120.3(6) . . ?
C017 C012 H012 119.8 . . ?
C00R C013 H013 121.9 . . ?
C019 C013 C00R 116.1(6) . . ?
C019 C013 H013 121.9 . . ?
C00H C014 H014 119.9 . . ?
C018 C014 C00H 120.2(6) . . ?
C018 C014 H014 119.9 . . ?
C011 C015 H015 120.0 . . ?
C01I C015 C011 120.0(8) . . ?
C01I C015 H015 120.0 . . ?
C00K C016 H016 120.1 . . ?
C00K C016 C01H 119.7(7) . . ?
C01H C016 H016 120.1 . . ?
C012 C017 H017 120.5 . . ?
C012 C017 C019 118.9(6) . . ?
C019 C017 H017 120.5 . . ?
C014 C018 H018 119.8 . . ?
C01B C018 C014 120.4(7) . . ?
C01B C018 H018 119.8 . . ?
C013 C019 Cl01 119.6(6) . . ?
C013 C019 C017 122.6(6) . . ?
C017 C019 Cl01 117.8(6) . . ?
C00Y C01A H01A 119.6 . . ?
C00Z C01A C00Y 120.7(6) . . ?
C00Z C01A H01A 119.6 . . ?
C00U C01B C018 120.0(6) . . ?
C00U C01B H01B 120.0 . . ?
C018 C01B H01B 120.0 . . ?
O008 C01E H01C 109.5 . . ?
O008 C01E H01D 109.5 . . ?
O008 C01E H01E 109.5 . . ?
H01C C01E H01D 109.5 . . ?
H01C C01E H01E 109.5 . . ?
H01D C01E H01E 109.5 . . ?
C01J C01G H01G 120.0 . . ?
C01J C01G C00W 120.0 . . ?
C00W C01G H01G 120.0 . . ?
C01G C01J H01J 120.0 . . ?
C01G C01J C01C 120.0 . . ?
C01C C01J H01J 120.0 . . ?
C01J C01C H01F 120.0 . . ?
C01J C01C C01D 120.0 . . ?
C01D C01C H01F 120.0 . . ?
C01C C01D H01H 120.0 . . ?
C01F C01D C01C 120.0 . . ?
C01F C01D H01H 120.0 . . ?
C01D C01F H01I 120.0 . . ?
C01D C01F C00W 120.0 . . ?
C00W C01F H01I 120.0 . . ?
C01G C00W C00S 119.9(3) . . ?
C01F C00W C00S 120.1(3) . . ?
C01F C00W C01G 120.0 . . ?
C016 C01H H01K 120.2 . . ?
C01I C01H C016 119.6(8) . . ?
C01I C01H H01K 120.2 . . ?
C015 C01I C01H 120.7(7) . . ?
C015 C01I H01L 119.6 . . ?
C01H C01I H01L 119.6 . . ?
Cl02 C01K H01M 109.0 . . ?
Cl02 C01K H01N 109.0 . . ?
Cl03 C01K Cl02 112.8(6) . . ?
Cl03 C01K H01M 109.0 . . ?
Cl03 C01K H01N 109.0 . . ?
H01M C01K H01N 107.8 . . ?
Cl1 C1 Cl 113.5(8) . . ?
Cl1 C1 H1AB 108.9 . . ?
Cl1 C1 H1AA 108.9 . . ?
Cl C1 H1AB 108.9 . . ?
Cl C1 H1AA 108.9 . . ?
H1AB C1 H1AA 107.7 . . ?
H1BC C1 H1BD 104.6 . . ?
Cl1A C1 H1BC 101.4 . . ?
Cl1A C1 H1BD 101.4 . . ?
ClA C1 H1BC 101.4 . . ?
ClA C1 H1BD 101.4 . . ?
ClA C1 Cl1A 142.4(12) . . ?
loop_
_geom_bond_atom_site_label_1
_geom_bond_atom_site_label_2
_geom_bond_distance
_geom_bond_site_symmetry_2
_geom_bond_publ_flag
Cl01 C019 1.736(6) . ?
Cl02 C01K 1.730(11) . ?
Cl03 C01K 1.727(10) . ?
Cl1 C1 1.634(15) . ?
O005 C00J 1.205(6) . ?
O006 C00I 1.222(6) . ?
O007 C00F 1.213(6) . ?
O008 C00Q 1.324(7) . ?
O008 C01E 1.447(7) . ?
N009 H009 0.8600 . ?
N009 C00F 1.352(7) . ?
N009 C00L 1.435(6) . ?
N00A H00A 0.8600 . ?
N00A N00D 1.400(6) . ?
N00A C00G 1.283(6) . ?
N00B C00I 1.356(7) . ?
N00B C00R 1.410(7) . ?
N00B C00S 1.463(7) . ?
O00C C00Q 1.195(7) . ?
N00D C00J 1.357(7) . ?
N00D C00O 1.416(7) . ?
Cl C1 1.697(14) . ?
C00F C00K 1.491(8) . ?
C00G C00H 1.474(7) . ?
C00G C00L 1.511(7) . ?
C00H C00M 1.384(8) . ?
C00H C014 1.388(8) . ?
C00I C00T 1.499(7) . ?
C00J C00L 1.541(7) . ?
C00K C011 1.373(8) . ?
C00K C016 1.383(9) . ?
C00L C00P 1.541(7) . ?
C00M H00M 0.9300 . ?
C00M C00U 1.386(9) . ?
C00N C00R 1.378(8) . ?
C00N C00T 1.476(8) . ?
C00N C012 1.380(8) . ?
C00O C00V 1.372(8) . ?
C00O C00Y 1.368(8) . ?
C00P H00B 0.9700 . ?
C00P H00C 0.9700 . ?
C00P C00X 1.507(7) . ?
C00Q C00X 1.494(7) . ?
C00R C013 1.373(8) . ?
C00S H00D 0.9700 . ?
C00S H00E 0.9700 . ?
C00S C00W 1.510(7) . ?
C00T C00X 1.360(7) . ?
C00U H00U 0.9300 . ?
C00U C01B 1.358(11) . ?
C00V H00V 0.9300 . ?
C00V C010 1.380(10) . ?
C00Y H00Y 0.9300 . ?
C00Y C01A 1.389(9) . ?
C00Z H00Z 0.9300 . ?
C00Z C010 1.362(11) . ?
C00Z C01A 1.355(10) . ?
C010 H010 0.9300 . ?
C011 H011 0.9300 . ?
C011 C015 1.385(10) . ?
C012 H012 0.9300 . ?
C012 C017 1.380(9) . ?
C013 H013 0.9300 . ?
C013 C019 1.372(10) . ?
C014 H014 0.9300 . ?
C014 C018 1.383(9) . ?
C015 H015 0.9300 . ?
C015 C01I 1.361(13) . ?
C016 H016 0.9300 . ?
C016 C01H 1.390(10) . ?
C017 H017 0.9300 . ?
C017 C019 1.387(10) . ?
C018 H018 0.9300 . ?
C018 C01B 1.366(10) . ?
C01A H01A 0.9300 . ?
C01B H01B 0.9300 . ?
C01E H01C 0.9600 . ?
C01E H01D 0.9600 . ?
C01E H01E 0.9600 . ?
C01G H01G 0.9300 . ?
C01G C01J 1.3900 . ?
C01G C00W 1.3900 . ?
C01J H01J 0.9300 . ?
C01J C01C 1.3900 . ?
C01C H01F 0.9300 . ?
C01C C01D 1.3900 . ?
C01D H01H 0.9300 . ?
C01D C01F 1.3900 . ?
C01F H01I 0.9300 . ?
C01F C00W 1.3900 . ?
C01H H01K 0.9300 . ?
C01H C01I 1.371(13) . ?
C01I H01L 0.9300 . ?
C01K H01M 0.9700 . ?
C01K H01N 0.9700 . ?
C1 H1AB 0.9700 . ?
C1 H1AA 0.9700 . ?
C1 H1BC 0.9700 . ?
C1 H1BD 0.9700 . ?
C1 Cl1A 1.696(17) . ?
C1 ClA 1.600(17) . ?
loop_
_geom_torsion_atom_site_label_1
_geom_torsion_atom_site_label_2
_geom_torsion_atom_site_label_3
_geom_torsion_atom_site_label_4
_geom_torsion
_geom_torsion_site_symmetry_1
_geom_torsion_site_symmetry_2
_geom_torsion_site_symmetry_3
_geom_torsion_site_symmetry_4
_geom_torsion_publ_flag
O005 C00J C00L N009 50.1(7) . . . . ?
O005 C00J C00L C00G 174.3(5) . . . . ?
O005 C00J C00L C00P -72.5(6) . . . . ?
O006 C00I C00T C00N 173.1(5) . . . . ?
O006 C00I C00T C00X -14.5(8) . . . . ?
O007 C00F C00K C011 -16.0(8) . . . . ?
O007 C00F C00K C016 161.3(6) . . . . ?
O008 C00Q C00X C00P 145.0(4) . . . . ?
O008 C00Q C00X C00T -43.3(7) . . . . ?
N009 C00F C00K C011 162.9(5) . . . . ?
N009 C00F C00K C016 -19.7(8) . . . . ?
N009 C00L C00P C00X -65.1(6) . . . . ?
N00A N00D C00J O005 -175.0(5) . . . . ?
N00A N00D C00J C00L 6.9(5) . . . . ?
N00A N00D C00O C00V 25.0(7) . . . . ?
N00A N00D C00O C00Y -153.8(5) . . . . ?
N00A C00G C00H C00M -179.3(5) . . . . ?
N00A C00G C00H C014 3.2(8) . . . . ?
N00A C00G C00L N009 126.3(5) . . . . ?
N00A C00G C00L C00J 6.3(5) . . . . ?
N00A C00G C00L C00P -107.8(5) . . . . ?
N00B C00I C00T C00N -4.7(5) . . . . ?
N00B C00I C00T C00X 167.7(5) . . . . ?
N00B C00R C013 C019 178.7(6) . . . . ?
N00B C00S C00W C01G 62.5(6) . . . . ?
N00B C00S C00W C01F -115.9(5) . . . . ?
O00C C00Q C00X C00P -32.6(7) . . . . ?
O00C C00Q C00X C00T 139.1(6) . . . . ?
N00D N00A C00G C00H -176.3(4) . . . . ?
N00D N00A C00G C00L -2.6(6) . . . . ?
N00D C00J C00L N009 -131.7(4) . . . . ?
N00D C00J C00L C00G -7.5(5) . . . . ?
N00D C00J C00L C00P 105.6(4) . . . . ?
N00D C00O C00V C010 -177.7(6) . . . . ?
N00D C00O C00Y C01A 178.5(5) . . . . ?
C00F N009 C00L C00G -63.7(6) . . . . ?
C00F N009 C00L C00J 50.2(6) . . . . ?
C00F N009 C00L C00P 171.8(4) . . . . ?
C00F C00K C011 C015 178.3(6) . . . . ?
C00F C00K C016 C01H -177.2(6) . . . . ?
C00G N00A N00D C00J -3.0(6) . . . . ?
C00G N00A N00D C00O -178.5(5) . . . . ?
C00G C00H C00M C00U -177.3(6) . . . . ?
C00G C00H C014 C018 177.8(6) . . . . ?
C00G C00L C00P C00X 165.5(4) . . . . ?
C00H C00G C00L N009 -60.4(6) . . . . ?
C00H C00G C00L C00J 179.6(5) . . . . ?
C00H C00G C00L C00P 65.5(6) . . . . ?
C00H C00M C00U C01B -0.9(10) . . . . ?
C00H C014 C018 C01B -0.1(10) . . . . ?
C00I N00B C00R C00N 0.5(6) . . . . ?
C00I N00B C00R C013 -178.7(5) . . . . ?
C00I N00B C00S C00W -100.5(6) . . . . ?
C00I C00T C00X C00P -11.2(7) . . . . ?
C00I C00T C00X C00Q 178.0(5) . . . . ?
C00J N00D C00O C00V -149.6(6) . . . . ?
C00J N00D C00O C00Y 31.6(8) . . . . ?
C00J C00L C00P C00X 57.7(6) . . . . ?
C00K C011 C015 C01I -1.4(12) . . . . ?
C00K C016 C01H C01I -0.6(12) . . . . ?
C00L N009 C00F O007 -2.8(7) . . . . ?
C00L N009 C00F C00K 178.2(4) . . . . ?
C00L C00G C00H C00M 8.0(8) . . . . ?
C00L C00G C00H C014 -169.5(5) . . . . ?
C00L C00P C00X C00Q -83.2(5) . . . . ?
C00L C00P C00X C00T 105.0(6) . . . . ?
C00M C00H C014 C018 0.2(9) . . . . ?
C00M C00U C01B C018 1.1(11) . . . . ?
C00N C00R C013 C019 -0.4(9) . . . . ?
C00N C00T C00X C00P 158.7(5) . . . . ?
C00N C00T C00X C00Q -12.1(9) . . . . ?
C00N C012 C017 C019 -0.5(11) . . . . ?
C00O N00D C00J O005 -0.1(9) . . . . ?
C00O N00D C00J C00L -178.3(5) . . . . ?
C00O C00V C010 C00Z -1.0(11) . . . . ?
C00O C00Y C01A C00Z -0.6(9) . . . . ?
C00R N00B C00I O006 -175.2(5) . . . . ?
C00R N00B C00I C00T 2.7(5) . . . . ?
C00R N00B C00S C00W 75.4(6) . . . . ?
C00R C00N C00T C00I 4.9(5) . . . . ?
C00R C00N C00T C00X -166.3(5) . . . . ?
C00R C00N C012 C017 -1.5(9) . . . . ?
C00R C013 C019 Cl01 179.1(5) . . . . ?
C00R C013 C019 C017 -1.8(10) . . . . ?
C00S N00B C00I O006 1.3(8) . . . . ?
C00S N00B C00I C00T 179.2(4) . . . . ?
C00S N00B C00R C00N -175.9(5) . . . . ?
C00S N00B C00R C013 4.9(8) . . . . ?
C00T C00N C00R N00B -3.5(6) . . . . ?
C00T C00N C00R C013 175.7(5) . . . . ?
C00T C00N C012 C017 -173.1(6) . . . . ?
C00V C00O C00Y C01A -0.4(9) . . . . ?
C00Y C00O C00V C010 1.2(10) . . . . ?
C010 C00Z C01A C00Y 0.8(10) . . . . ?
C011 C00K C016 C01H 0.1(10) . . . . ?
C011 C015 C01I C01H 0.9(14) . . . . ?
C012 C00N C00R N00B -177.2(5) . . . . ?
C012 C00N C00R C013 2.0(8) . . . . ?
C012 C00N C00T C00I 177.2(6) . . . . ?
C012 C00N C00T C00X 6.0(10) . . . . ?
C012 C017 C019 Cl01 -178.6(6) . . . . ?
C012 C017 C019 C013 2.3(11) . . . . ?
C014 C00H C00M C00U 0.2(9) . . . . ?
C014 C018 C01B C00U -0.6(11) . . . . ?
C016 C00K C011 C015 0.9(10) . . . . ?
C016 C01H C01I C015 0.1(14) . . . . ?
C01A C00Z C010 C00V 0.0(11) . . . . ?
C01E O008 C00Q O00C 3.2(8) . . . . ?
C01E O008 C00Q C00X -174.3(5) . . . . ?
C01G C01J C01C C01D 0.0 . . . . ?
C01J C01G C00W C00S -178.4(5) . . . . ?
C01J C01G C00W C01F 0.0 . . . . ?
C01J C01C C01D C01F 0.0 . . . . ?
C01C C01D C01F C00W 0.0 . . . . ?
C01D C01F C00W C00S 178.4(5) . . . . ?
C01D C01F C00W C01G 0.0 . . . . ?
C00W C01G C01J C01C 0.0 . . . . ?
