#------------------------------------------------------------------------------
#$Date: 2016-03-26 17:54:55 +0200 (Sat, 26 Mar 2016) $
#$Revision: 180404 $
#$URL: svn://www.crystallography.net/cod/cif/7/20/73/7207320.cif $
#------------------------------------------------------------------------------
#
# This file is available in the Crystallography Open Database (COD),
# http://www.crystallography.net/
#
# All data on this site have been placed in the public domain by the
# contributors.
#
data_7207320
loop_
_publ_author_name
'Spencer, Elinor C.'
'Ross, Nancy L.'
'Angel, Ross J.'
_publ_section_title
;
 The high pressure behaviour of the 3D copper carbonate framework
 {[Cu(CO3)2](CH6N3)2}n
;
_journal_issue                   5
_journal_name_full               'Journal of Materials Chemistry'
_journal_page_first              2074
_journal_paper_doi               10.1039/c2jm15206a
_journal_volume                  22
_journal_year                    2012
_chemical_formula_moiety         'C2 Cu O6, 2(C H6 N3)'
_chemical_formula_sum            'C4 H12 Cu N6 O6'
_chemical_formula_weight         303.74
_chemical_name_systematic
;
?
;
_space_group_IT_number           118
_symmetry_cell_setting           tetragonal
_symmetry_space_group_name_Hall  'P -4 -2n'
_symmetry_space_group_name_H-M   'P -4 n 2'
_atom_sites_solution_hydrogens   geom
_atom_sites_solution_primary     direct
_atom_sites_solution_secondary   difmap
_audit_creation_method           SHELXL-97
_cell_angle_alpha                90.00
_cell_angle_beta                 90.00
_cell_angle_gamma                90.00
_cell_formula_units_Z            4
_cell_length_a                   8.9664(3)
_cell_length_b                   8.9664(3)
_cell_length_c                   12.3548(3)
_cell_measurement_reflns_used    3981
_cell_measurement_temperature    298(2)
_cell_measurement_theta_max      30.1543
_cell_measurement_theta_min      3.2944
_cell_volume                     993.28(5)
_computing_cell_refinement
;
CrysAlisPro, Agilent Technologies,
Version 1.171.34.49 (release 20-01-2011 CrysAlis171 .NET)
(compiled Jan 20 2011,15:58:25)
;
_computing_data_collection
;
CrysAlisPro, Oxford Diffraction Ltd.,
Version 1.171.33.58 (release 29-01-2010 CrysAlis171 .NET)
(compiled Jan 29 2010,16:49:25)
;
_computing_data_reduction
;
Average v2.2 (Angel, 2003) www.crystal.vt.edu/crystal
Absorb Angel (2004) J. Appl. Cryst. 37:486-492
;
_computing_molecular_graphics
;
CrystalMaker V.2.0.6, CrystalMaker Software Ltd.'
;
_computing_structure_refinement
;
shelxl-97 (G.M.Sheldrick, 2008, Acta Cryst., A64,112)
WinGX (L.J Farrugia, 1999, J. Appl. Cryst., 32, 837)
;
_diffrn_ambient_temperature      298(2)
_diffrn_detector                 'Oxford Diffraction, Xcalibur1 CCD'
_diffrn_measured_fraction_theta_full 0.647
_diffrn_measured_fraction_theta_max 0.648
_diffrn_measurement_device       '\k-geometry diffractometer'
_diffrn_measurement_device_type  'Oxford Diffraction Xcalibur1'
_diffrn_measurement_method       'phi and omega scans'
_diffrn_radiation_monochromator  graphite
_diffrn_radiation_probe          x-ray
_diffrn_radiation_source         'fine-focus sealed tube'
_diffrn_radiation_type           MoK\a
_diffrn_radiation_wavelength     0.71073
_diffrn_reflns_av_R_equivalents  0.960
_diffrn_reflns_limit_h_max       12
_diffrn_reflns_limit_h_min       -3
_diffrn_reflns_limit_k_max       12
_diffrn_reflns_limit_k_min       -12
_diffrn_reflns_limit_l_max       17
_diffrn_reflns_limit_l_min       -17
_diffrn_reflns_number            7689
_diffrn_reflns_reduction_process
;
Data averaged using Blessing (1987) criteria
;
_diffrn_reflns_theta_full        30.00
_diffrn_reflns_theta_max         29.96
_diffrn_reflns_theta_min         4.00
_exptl_absorpt_coefficient_mu    2.233
_exptl_absorpt_correction_T_max  0.309
_exptl_absorpt_correction_T_min  0.238
_exptl_absorpt_correction_type   gaussian
_exptl_absorpt_process_details
;
Gaussian integration over a grid
of 16 x 8 x 16 points = 2048 total grid points
Based upon method of Burnham (1966)

Data corrected for diamond-anvil cell absorption
Note that exptl_absorpt_correction_tmin and _tmax
the total correction factors applied to the intensities
The individual factors are:
range of dac transmission factors (min-max) 0.314 0.394
range of gasket transmission (min-max) 0.973 1.000
range of P media transmission (min-max) 1.000 1.000

thickness of diamond anvil 1: 1.500 mm, mu = 0.2000 mm-1
thickness of platten 1: 3.300 mm, mu = 0.0500 mm-1

thickness of diamond anvil 2: 1.500 mm, mu = 0.2000 mm-1
thickness of platten 2: 3.300 mm, mu = 0.0500 mm-1

Gasket shadowing corrections were made based upon
Gasket thickness = 145.0 microns, radius = 250.0 microns
Gasket absorption coeff = 30.00 mm-1
REFLECTION WAS CONSIDERED TOTALLY OBSCURED IF
FRACTION CRYSTAL ILLUMINATED WAS LESS THAN 0.20

Non-absorbing pressure medium
;
_exptl_crystal_colour            Blue
_exptl_crystal_density_diffrn    2.031
_exptl_crystal_density_method    'not measured'
_exptl_crystal_description       Fragment
_exptl_crystal_F_000             620
_exptl_crystal_preparation
;
Crystal mounted in a diamond-anvil cell
Crystal held under 1.45GPa of pressure
;
_exptl_crystal_size_max          0.34
_exptl_crystal_size_mid          0.28
_exptl_crystal_size_min          0.11
_refine_diff_density_max         0.445
_refine_diff_density_min         -0.611
_refine_diff_density_rms         0.115
_refine_ls_abs_structure_details 'Flack H D (1983), Acta Cryst. A39, 876-881'
_refine_ls_abs_structure_Flack   0.27(12)
_refine_ls_extinction_method     none
_refine_ls_goodness_of_fit_ref   1.099
_refine_ls_hydrogen_treatment    constr
_refine_ls_matrix_type           full
_refine_ls_number_parameters     32
_refine_ls_number_reflns         501
_refine_ls_number_restraints     1
_refine_ls_restrained_S_all      1.098
_refine_ls_R_factor_all          0.0714
_refine_ls_R_factor_gt           0.0569
_refine_ls_shift/su_max          0.000
_refine_ls_shift/su_mean         0.000
_refine_ls_structure_factor_coef Fsqd
_refine_ls_weighting_details
'calc w=1/[\s^2^(Fo^2^)+(0.0737P)^2^+1.9991P] where P=(Fo^2^+2Fc^2^)/3'
_refine_ls_weighting_scheme      calc
_refine_ls_wR_factor_gt          0.1386
_refine_ls_wR_factor_ref         0.1498
_reflns_number_gt                385
_reflns_number_total             595
_reflns_threshold_expression     'Fsqd > 2.0u(Fsqd)'
_cod_data_source_file            c2jm15206a.txt
_cod_data_source_block           Crystal_I_1.45GPa
_cod_depositor_comments
;
The following automatic conversions were performed:

'_symmetry_cell_setting' value 'Tetragonal' changed to 'tetragonal'
according to /home/saulius/struct/CIF-dictionaries/cif_core.dic
dictionary named 'cif_core.dic' version 2.4.1 from
2010-06-29.

'_diffrn_radiation_probe' value 'X-ray' changed to
'x-ray' according to
/home/saulius/struct/CIF-dictionaries/cif_core.dic dictionary named
'cif_core.dic' version 2.4.1 from
2010-06-29.

'_exptl_absorpt_correction_type' value 'Gaussian'
changed to 'gaussian' according to
/home/saulius/struct/CIF-dictionaries/cif_core.dic dictionary named
'cif_core.dic' version 2.4.1 from 2010-06-29.

Automatic conversion script
Id: cif_fix_values 1715 2011-07-08 13:25:40Z adriana 
;
_cod_original_sg_symbol_H-M      P-4n2
_cod_database_code               7207320
#BEGIN Tags that were not found in dictionaries:
_exptl_absorpt_correction_mu     2.220
_diffrn_reflns_uneti/neti        0.003
#END Tags that were not found in dictionaries
loop_
_symmetry_equiv_pos_as_xyz
'x, y, z'
'-x, -y, z'
'y, -x, -z'
'-y, x, -z'
'x+1/2, -y+1/2, z+1/2'
'-x+1/2, y+1/2, z+1/2'
'y+1/2, x+1/2, -z+1/2'
'-y+1/2, -x+1/2, -z+1/2'
loop_
_atom_site_label
_atom_site_type_symbol
_atom_site_fract_x
_atom_site_fract_y
_atom_site_fract_z
_atom_site_U_iso_or_equiv
_atom_site_adp_type
_atom_site_occupancy
_atom_site_symmetry_multiplicity
_atom_site_calc_flag
_atom_site_refinement_flags
Cu1 Cu 1.0000 0.5000 0.2500 0.0094(5) Uiso 1 4 d S
Cu2 Cu 0.5000 0.5000 0.0000 0.0117(6) Uiso 1 4 d S
C1 C 0.7605(12) 0.5442(10) 0.1190(8) 0.0092(15) Uiso 1 1 d .
O1 O 0.8867(8) 0.6027(8) 0.1371(4) 0.0175(13) Uiso 1 1 d .
O2 O 0.6853(8) 0.6004(8) 0.0369(5) 0.0173(14) Uiso 1 1 d .
O3 O 0.7065(9) 0.4406(9) 0.1752(5) 0.0210(16) Uiso 1 1 d .
C2 C 0.5062(13) 0.751(2) 0.3757(13) 0.0319(10) Uiso 1 1 d D
N1 N 0.5806(14) 0.6730(12) 0.3049(6) 0.0319(10) Uiso 1 1 d D
H1A H 0.6764 0.6695 0.3081 0.038 Uiso 1 1 calc R
H1B H 0.5339 0.6250 0.2551 0.038 Uiso 1 1 calc R
N2 N 0.3612(12) 0.7587(13) 0.3686(8) 0.0319(10) Uiso 1 1 d D
H2A H 0.3118 0.8120 0.4140 0.038 Uiso 1 1 calc R
H2B H 0.3151 0.7105 0.3186 0.038 Uiso 1 1 calc R
N3 N 0.5750(13) 0.8237(12) 0.4511(7) 0.0319(10) Uiso 1 1 d D
H3A H 0.6707 0.8209 0.4549 0.038 Uiso 1 1 calc R
H3B H 0.5250 0.8748 0.4975 0.038 Uiso 1 1 calc R
loop_
_atom_type_symbol
_atom_type_description
_atom_type_scat_dispersion_real
_atom_type_scat_dispersion_imag
_atom_type_scat_source
C C 0.0033 0.0016 'International Tables Vol C Tables 4.2.6.8 and 6.1.1.4'
H H 0.0000 0.0000 'International Tables Vol C Tables 4.2.6.8 and 6.1.1.4'
N N 0.0061 0.0033 'International Tables Vol C Tables 4.2.6.8 and 6.1.1.4'
O O 0.0106 0.0060 'International Tables Vol C Tables 4.2.6.8 and 6.1.1.4'
Cu Cu 0.3201 1.2651 'International Tables Vol C Tables 4.2.6.8 and 6.1.1.4'
loop_
_geom_angle_atom_site_label_1
_geom_angle_atom_site_label_2
_geom_angle_atom_site_label_3
_geom_angle
_geom_angle_site_symmetry_1
_geom_angle_site_symmetry_3
O1 Cu1 O1 89.0(3) 8_665 7_545
O1 Cu1 O1 176.1(5) 8_665 2_765
O1 Cu1 O1 91.1(3) 7_545 2_765
O1 Cu1 O1 91.1(3) 8_665 .
O1 Cu1 O1 176.1(5) 7_545 .
O1 Cu1 O1 89.0(3) 2_765 .
O2 Cu2 O2 152.9(3) . 2_665
O2 Cu2 O2 93.15(8) . 3_565
O2 Cu2 O2 93.15(8) 2_665 3_565
O2 Cu2 O2 93.15(8) . 4_655
O2 Cu2 O2 93.15(8) 2_665 4_655
O2 Cu2 O2 152.9(3) 3_565 4_655
O3 C1 O1 123.6(9) . .
O3 C1 O2 120.7(9) . .
O1 C1 O2 115.7(8) . .
C1 O1 Cu1 113.2(6) . .
C1 O2 Cu2 116.1(6) . .
N3 C2 N1 120.7(11) . .
N3 C2 N2 119.7(16) . .
N1 C2 N2 119.6(16) . .
C2 N1 H1A 120.0 . .
C2 N1 H1B 120.0 . .
H1A N1 H1B 120.0 . .
C2 N2 H2A 120.0 . .
C2 N2 H2B 120.0 . .
H2A N2 H2B 120.0 . .
C2 N3 H3A 120.0 . .
C2 N3 H3B 120.0 . .
H3A N3 H3B 120.0 . .
loop_
_geom_bond_atom_site_label_1
_geom_bond_atom_site_label_2
_geom_bond_distance
_geom_bond_site_symmetry_2
Cu1 O1 1.956(6) 8_665
Cu1 O1 1.956(6) 7_545
Cu1 O1 1.956(6) 2_765
Cu1 O1 1.956(6) .
Cu2 O2 1.944(7) .
Cu2 O2 1.944(7) 2_665
Cu2 O2 1.944(7) 3_565
Cu2 O2 1.944(7) 4_655
C1 O3 1.256(13) .
C1 O1 1.267(12) .
C1 O2 1.318(12) .
C2 N3 1.29(2) .
C2 N1 1.30(2) .
C2 N2 1.305(15) .
N1 H1A 0.8600 .
N1 H1B 0.8600 .
N2 H2A 0.8600 .
N2 H2B 0.8600 .
N3 H3A 0.8600 .
N3 H3B 0.8600 .
loop_
_geom_torsion_atom_site_label_1
_geom_torsion_atom_site_label_2
_geom_torsion_atom_site_label_3
_geom_torsion_atom_site_label_4
_geom_torsion
_geom_torsion_site_symmetry_1
O3 C1 O1 Cu1 7.1(13) .
O2 C1 O1 Cu1 -174.0(6) .
O1 Cu1 O1 C1 -84.6(7) 8_665
O1 Cu1 O1 C1 7.4(6) 7_545
O1 Cu1 O1 C1 99.4(7) 2_765
O3 C1 O2 Cu2 -6.4(12) .
O1 C1 O2 Cu2 174.6(6) .
O2 Cu2 O2 C1 40.2(6) 2_665
O2 Cu2 O2 C1 -63.0(6) 3_565
O2 Cu2 O2 C1 143.4(7) 4_655
