#------------------------------------------------------------------------------
#$Date: 2016-03-26 20:51:55 +0200 (Sat, 26 Mar 2016) $
#$Revision: 180452 $
#$URL: svn://www.crystallography.net/cod/cif/7/21/21/7212125.cif $
#------------------------------------------------------------------------------
#
# This file is available in the Crystallography Open Database (COD),
# http://www.crystallography.net/
#
# All data on this site have been placed in the public domain by the
# contributors.
#
data_7212125
loop_
_publ_author_name
'Smiglak, Marcin'
'Hines, C. Corey'
'Rogers, Robin D.'
_publ_section_title
;
 New hydrogen carbonate precursors for efficient and byproduct-free
 syntheses of ionic liquids based on 1,2,3-trimethylimidazolium and
 N,N-dimethylpyrrolidinium cores
;
_journal_issue                   3
_journal_name_full               'Green Chemistry'
_journal_page_first              491
_journal_paper_doi               10.1039/b920003g
_journal_volume                  12
_journal_year                    2010
_chemical_formula_sum            'C8 H14 N2 O3'
_chemical_formula_weight         186.21
_chemical_name_common            (1,2,3-triMeIM)(MeCO3)
_chemical_name_systematic
;
?
;
_space_group_IT_number           14
_symmetry_cell_setting           monoclinic
_symmetry_space_group_name_Hall  '-P 2yn'
_symmetry_space_group_name_H-M   'P 1 21/n 1'
_atom_sites_solution_hydrogens   geom
_atom_sites_solution_primary     direct
_atom_sites_solution_secondary   difmap
_audit_creation_method           SHELXL-97
_cell_angle_alpha                90.00
_cell_angle_beta                 96.229(2)
_cell_angle_gamma                90.00
_cell_formula_units_Z            4
_cell_length_a                   6.8805(6)
_cell_length_b                   11.6254(10)
_cell_length_c                   11.9614(11)
_cell_measurement_reflns_used    4168
_cell_measurement_temperature    173(2)
_cell_measurement_theta_max      28.19
_cell_measurement_theta_min      2.45
_cell_volume                     951.13(15)
_computing_cell_refinement       'Bruker SMART'
_computing_data_collection       'Bruker SMART'
_computing_data_reduction        'Bruker SAINT'
_computing_molecular_graphics    'Bruker SHELXTL'
_computing_publication_material  'Bruker SHELXTL'
_computing_structure_refinement  'SHELXL-97 (Sheldrick, 1997)'
_computing_structure_solution    'SHELXS-97 (Sheldrick, 1990)'
_diffrn_ambient_temperature      173(2)
_diffrn_measured_fraction_theta_full 0.999
_diffrn_measured_fraction_theta_max 0.941
_diffrn_measurement_device_type  'CCD area detector'
_diffrn_measurement_method       'phi and omega scans'
_diffrn_radiation_monochromator  graphite
_diffrn_radiation_source         'fine-focus sealed tube'
_diffrn_radiation_type           MoK\a
_diffrn_radiation_wavelength     0.71073
_diffrn_reflns_av_R_equivalents  0.0192
_diffrn_reflns_av_sigmaI/netI    0.0202
_diffrn_reflns_limit_h_max       8
_diffrn_reflns_limit_h_min       -8
_diffrn_reflns_limit_k_max       14
_diffrn_reflns_limit_k_min       -15
_diffrn_reflns_limit_l_max       8
_diffrn_reflns_limit_l_min       -15
_diffrn_reflns_number            6361
_diffrn_reflns_theta_full        25.30
_diffrn_reflns_theta_max         28.28
_diffrn_reflns_theta_min         2.45
_exptl_absorpt_coefficient_mu    0.100
_exptl_absorpt_correction_T_max  0.9911
_exptl_absorpt_correction_T_min  0.9707
_exptl_absorpt_correction_type   multi-scan
_exptl_absorpt_process_details   '(SADABS, Sheldrick, 2002)'
_exptl_crystal_colour            colorless
_exptl_crystal_density_diffrn    1.300
_exptl_crystal_density_method    'not measured'
_exptl_crystal_description       plate
_exptl_crystal_F_000             400
_exptl_crystal_size_max          0.30
_exptl_crystal_size_mid          0.22
_exptl_crystal_size_min          0.09
_refine_diff_density_max         0.177
_refine_diff_density_min         -0.211
_refine_diff_density_rms         0.043
_refine_ls_extinction_method     none
_refine_ls_goodness_of_fit_ref   1.164
_refine_ls_hydrogen_treatment    refall
_refine_ls_matrix_type           full
_refine_ls_number_parameters     174
_refine_ls_number_reflns         2219
_refine_ls_number_restraints     0
_refine_ls_restrained_S_all      1.164
_refine_ls_R_factor_all          0.0510
_refine_ls_R_factor_gt           0.0428
_refine_ls_shift/su_max          0.000
_refine_ls_shift/su_mean         0.000
_refine_ls_structure_factor_coef Fsqd
_refine_ls_weighting_details
'calc w=1/[\s^2^(Fo^2^)+(0.0487P)^2^+0.2417P] where P=(Fo^2^+2Fc^2^)/3'
_refine_ls_weighting_scheme      calc
_refine_ls_wR_factor_gt          0.1044
_refine_ls_wR_factor_ref         0.1087
_reflns_number_gt                1953
_reflns_number_total             2219
_reflns_threshold_expression     >2sigma(I)
_cod_data_source_file            b920003g.txt
_cod_data_source_block           '[1,2,3-triMeIM][MeCO3]'
_cod_depositor_comments
;
The following automatic conversions were performed:

'_symmetry_cell_setting' value 'Monoclinic' changed to 'monoclinic'
according to /home/saulius/struct/CIF-dictionaries/cif_core.dic
dictionary named 'cif_core.dic' version 2.4.2 from 2011-04-26.

Automatic conversion script
Id: cif_fix_values 1891 2012-01-12 08:04:46Z andrius 
;
_cod_original_sg_symbol_H-M      P2(1)/n
_cod_database_code               7212125
loop_
_symmetry_equiv_pos_as_xyz
'x, y, z'
'-x+1/2, y+1/2, -z+1/2'
'-x, -y, -z'
'x-1/2, -y-1/2, z-1/2'
loop_
_atom_site_label
_atom_site_type_symbol
_atom_site_fract_x
_atom_site_fract_y
_atom_site_fract_z
_atom_site_U_iso_or_equiv
_atom_site_adp_type
_atom_site_occupancy
_atom_site_symmetry_multiplicity
_atom_site_calc_flag
O1 O 1.08588(16) 0.72300(9) 0.48332(8) 0.0353(3) Uani 1 1 d
O2 O 0.90907(16) 0.74459(9) 0.62773(9) 0.0376(3) Uani 1 1 d
O3 O 1.10928(15) 0.59728(9) 0.62719(8) 0.0362(3) Uani 1 1 d
N1 N 0.58048(16) 0.88738(9) 0.38828(9) 0.0247(2) Uani 1 1 d
N3 N 0.57995(15) 1.06474(9) 0.33617(9) 0.0243(2) Uani 1 1 d
C1 C 0.5202(2) 0.76819(13) 0.40444(13) 0.0341(3) Uani 1 1 d
H1A H 0.399(3) 0.7692(15) 0.4328(16) 0.041(5) Uiso 1 1 d
H1B H 0.619(3) 0.7310(16) 0.4546(17) 0.047(5) Uiso 1 1 d
H1C H 0.505(3) 0.7300(16) 0.3363(16) 0.043(5) Uiso 1 1 d
C2 C 0.46707(18) 0.97168(11) 0.34218(10) 0.0246(3) Uani 1 1 d
C3 C 0.5156(2) 1.17576(12) 0.28639(13) 0.0332(3) Uani 1 1 d
H3A H 0.401(3) 1.2009(17) 0.3176(16) 0.047(5) Uiso 1 1 d
H3B H 0.616(3) 1.2314(16) 0.3061(16) 0.045(5) Uiso 1 1 d
H3C H 0.484(3) 1.1681(15) 0.2065(16) 0.041(4) Uiso 1 1 d
C4 C 0.76982(19) 1.03738(12) 0.37703(11) 0.0277(3) Uani 1 1 d
H4A H 0.873(2) 1.0945(14) 0.3777(13) 0.035(4) Uiso 1 1 d
C5 C 0.77007(19) 0.92651(12) 0.40957(11) 0.0281(3) Uani 1 1 d
H5A H 0.873(3) 0.8733(14) 0.4431(14) 0.038(4) Uiso 1 1 d
C6 C 0.2574(2) 0.96250(15) 0.30152(14) 0.0364(3) Uani 1 1 d
H6A H 0.243(3) 0.9345(18) 0.2248(19) 0.059(6) Uiso 1 1 d
H6B H 0.196(3) 1.0323(19) 0.3036(17) 0.058(6) Uiso 1 1 d
H6C H 0.188(3) 0.9045(18) 0.3488(18) 0.061(6) Uiso 1 1 d
C7 C 1.02847(19) 0.69527(11) 0.57392(11) 0.0253(3) Uani 1 1 d
C8 C 1.2504(3) 0.53669(14) 0.57118(15) 0.0404(4) Uani 1 1 d
H8A H 1.203(3) 0.5182(18) 0.4923(19) 0.062(6) Uiso 1 1 d
H8B H 1.369(4) 0.584(2) 0.5668(19) 0.067(6) Uiso 1 1 d
H8C H 1.283(3) 0.464(2) 0.612(2) 0.076(7) Uiso 1 1 d
loop_
_atom_site_aniso_label
_atom_site_aniso_U_11
_atom_site_aniso_U_22
_atom_site_aniso_U_33
_atom_site_aniso_U_23
_atom_site_aniso_U_13
_atom_site_aniso_U_12
O1 0.0404(6) 0.0363(5) 0.0300(5) 0.0086(4) 0.0079(4) 0.0047(4)
O2 0.0351(6) 0.0414(6) 0.0378(6) 0.0031(4) 0.0110(4) 0.0083(4)
O3 0.0426(6) 0.0344(5) 0.0331(5) 0.0108(4) 0.0102(4) 0.0099(4)
N1 0.0244(5) 0.0276(5) 0.0223(5) 0.0001(4) 0.0030(4) 0.0000(4)
N3 0.0235(5) 0.0262(5) 0.0230(5) -0.0021(4) 0.0012(4) 0.0035(4)
C1 0.0371(8) 0.0300(7) 0.0353(8) 0.0034(6) 0.0041(6) -0.0060(6)
C2 0.0224(6) 0.0306(6) 0.0214(6) -0.0044(5) 0.0046(5) 0.0022(5)
C3 0.0346(8) 0.0290(7) 0.0348(7) 0.0025(6) -0.0009(6) 0.0074(6)
C4 0.0219(6) 0.0303(7) 0.0302(7) -0.0022(5) -0.0009(5) -0.0001(5)
C5 0.0234(6) 0.0311(7) 0.0287(6) 0.0005(5) -0.0023(5) 0.0011(5)
C6 0.0211(7) 0.0463(9) 0.0413(8) -0.0064(7) 0.0014(6) 0.0024(6)
C7 0.0238(6) 0.0253(6) 0.0257(6) 0.0010(5) -0.0015(5) -0.0025(5)
C8 0.0453(9) 0.0313(8) 0.0457(9) 0.0040(7) 0.0101(7) 0.0116(7)
loop_
_atom_type_symbol
_atom_type_description
_atom_type_scat_dispersion_real
_atom_type_scat_dispersion_imag
_atom_type_scat_source
C C 0.0033 0.0016 'International Tables Vol C Tables 4.2.6.8 and 6.1.1.4'
H H 0.0000 0.0000 'International Tables Vol C Tables 4.2.6.8 and 6.1.1.4'
N N 0.0061 0.0033 'International Tables Vol C Tables 4.2.6.8 and 6.1.1.4'
O O 0.0106 0.0060 'International Tables Vol C Tables 4.2.6.8 and 6.1.1.4'
loop_
_geom_angle_atom_site_label_1
_geom_angle_atom_site_label_2
_geom_angle_atom_site_label_3
_geom_angle
C7 O3 C8 116.64(11)
C2 N1 C5 109.46(11)
C2 N1 C1 126.01(12)
C5 N1 C1 124.29(12)
C2 N3 C4 109.09(11)
C2 N3 C3 125.51(12)
C4 N3 C3 125.26(12)
N1 C1 H1A 108.2(11)
N1 C1 H1B 108.5(11)
H1A C1 H1B 112.3(16)
N1 C1 H1C 110.1(11)
H1A C1 H1C 107.9(17)
H1B C1 H1C 109.8(16)
N1 C2 N3 107.41(11)
N1 C2 C6 126.17(13)
N3 C2 C6 126.39(13)
N3 C3 H3A 109.6(12)
N3 C3 H3B 108.5(11)
H3A C3 H3B 107.5(16)
N3 C3 H3C 110.3(11)
H3A C3 H3C 108.3(16)
H3B C3 H3C 112.7(15)
C5 C4 N3 107.11(12)
C5 C4 H4A 132.3(10)
N3 C4 H4A 120.6(10)
C4 C5 N1 106.91(12)
C4 C5 H5A 133.9(10)
N1 C5 H5A 119.2(10)
C2 C6 H6A 109.5(12)
C2 C6 H6B 111.3(13)
H6A C6 H6B 108.8(18)
C2 C6 H6C 111.1(12)
H6A C6 H6C 107.1(17)
H6B C6 H6C 108.9(17)
O1 C7 O2 128.93(13)
O1 C7 O3 117.73(12)
O2 C7 O3 113.32(11)
O3 C8 H8A 112.8(12)
O3 C8 H8B 111.0(13)
H8A C8 H8B 104.9(18)
O3 C8 H8C 108.8(13)
H8A C8 H8C 108.5(18)
H8B C8 H8C 110.8(19)
loop_
_geom_bond_atom_site_label_1
_geom_bond_atom_site_label_2
_geom_bond_distance
O1 C7 1.2358(16)
O2 C7 1.2381(16)
O3 C7 1.3913(16)
O3 C8 1.4244(18)
N1 C2 1.3343(17)
N1 C5 1.3789(17)
N1 C1 1.4651(18)
N3 C2 1.3382(17)
N3 C4 1.3814(16)
N3 C3 1.4693(17)
C1 H1A 0.934(19)
C1 H1B 0.96(2)
C1 H1C 0.924(19)
C2 C6 1.4756(19)
C3 H3A 0.952(19)
C3 H3B 0.96(2)
C3 H3C 0.961(19)
C4 C5 1.3464(19)
C4 H4A 0.972(17)
C5 H5A 0.991(17)
C6 H6A 0.97(2)
C6 H6B 0.92(2)
C6 H6C 1.03(2)
C8 H8A 0.99(2)
C8 H8B 0.99(2)
C8 H8C 0.99(2)
