#------------------------------------------------------------------------------
#$Date: 2022-10-27 01:54:53 +0300 (Thu, 27 Oct 2022) $
#$Revision: 278821 $
#$URL: file:///home/coder/svn-repositories/cod/cif/7/24/57/7245721.cif $
#------------------------------------------------------------------------------
#
# This file is available in the Crystallography Open Database (COD),
# http://www.crystallography.net/
#
# All data on this site have been placed in the public domain by the
# contributors.
#
data_7245721
loop_
_publ_author_name
'Takano, Rina'
'Ishida, Takayuki'
'Ay, Burak'
_publ_section_title
;
 Synthesis, crystal structure, and luminescence properties of a
 three-dimensional coordination polymer from europium(iii) carbonate
 hemioxalate hydrate
;
_journal_name_full               CrystEngComm
_journal_paper_doi               10.1039/D2CE01105K
_journal_year                    2022
_chemical_absolute_configuration unk
_chemical_formula_moiety         'C2 H2 Eu O6'
_chemical_formula_sum            'C2 H2 Eu O6'
_chemical_formula_weight         273.999
_chemical_name_common            '[Eu(ox)0.5(CO3)(H2O)]'
_chemical_name_systematic        'Europium(III) Carbonate Hemioxalate Hydrate'
_space_group_crystal_system      orthorhombic
_space_group_IT_number           38
_space_group_name_Hall           'A 2 -2'
_space_group_name_H-M_alt        'A m m 2'
_symmetry_Int_Tables_number      38
_atom_sites_solution_primary     dual
_audit_block_doi                 10.5517/ccdc.csd.cc2c77b6
_audit_creation_date             2022-05-13
_audit_creation_method
;
Olex2 1.5-ac5-018
(compiled 2021.09.08 svn.r13c46975 for Rigaku Oxford Diffraction, GUI svn.r6396)
;
_audit_update_record
;
2022-06-24 deposited with the CCDC.	2022-09-29 downloaded from the CCDC.
;
_cell_angle_alpha                90
_cell_angle_beta                 90
_cell_angle_gamma                90
_cell_formula_units_Z            4
_cell_length_a                   4.8070(4)
_cell_length_b                   15.1947(9)
_cell_length_c                   7.8938(6)
_cell_measurement_reflns_used    1334
_cell_measurement_temperature    100.8(4)
_cell_measurement_theta_max      31.7660
_cell_measurement_theta_min      4.2450
_cell_volume                     576.57(7)
_computing_cell_refinement       'CrysAlisPro 1.171.42.35a (Rigaku OD, 2021)'
_computing_data_collection       'CrysAlisPro 1.171.42.35a (Rigaku OD, 2021)'
_computing_data_reduction        'CrysAlisPro 1.171.42.35a (Rigaku OD, 2021)'
_computing_molecular_graphics    'Olex2 1.5-ac5-018 (Dolomanov et al., 2009)'
_computing_publication_material  'Olex2 1.5-ac5-018 (Dolomanov et al., 2009)'
_computing_structure_refinement
'olex2.refine 1.5-ac5-018 (Bourhis et al., 2015)'
_computing_structure_solution    'SHELXT 2014/5 (Sheldrick, 2014)'
_diffrn_ambient_environment      N~2~
_diffrn_ambient_temperature      100.8(4)
_diffrn_detector                 'Hybrid Pixel Array Detector'
_diffrn_detector_area_resol_mean 10.0000
_diffrn_detector_type            HyPix
_diffrn_measured_fraction_theta_full 0.9848
_diffrn_measured_fraction_theta_max 0.8317
_diffrn_measurement_details
;
List of Runs (angles in degrees, time in seconds):

  # Type    Start    End  Width  t~exp~   \w     \q     \k     \f   Frames
#--------------------------------------------------------------------------
  1  \w     -3.00  24.00   0.50    0.20    --   -4.52  91.00 -47.00   54
  2  \w    -17.00  29.00   0.50    0.20    --    3.74 -99.00   0.00   92
  3  \w    -39.00  13.00   0.50    0.20    --   -4.52 -77.00 150.00  104
  4  \w    -75.00 -41.00   0.50    0.20    --   -4.52 -77.00 150.00   68
;
_diffrn_measurement_device       'four-circle diffractometer'
_diffrn_measurement_device_type  'XtaLAB Synergy R, DW system, HyPix'
_diffrn_measurement_method       '\w scans'
_diffrn_orient_matrix_type
'CrysAlisPro convention (1999,Acta A55,543-557)'
_diffrn_orient_matrix_UB_11      -0.0043292000
_diffrn_orient_matrix_UB_12      0.0452894000
_diffrn_orient_matrix_UB_13      0.0347467000
_diffrn_orient_matrix_UB_21      -0.0362123000
_diffrn_orient_matrix_UB_22      -0.0109173000
_diffrn_orient_matrix_UB_23      0.1307888000
_diffrn_orient_matrix_UB_31      0.0820494000
_diffrn_orient_matrix_UB_32      -0.0024137000
_diffrn_orient_matrix_UB_33      0.0593406000
_diffrn_radiation_monochromator  mirror
_diffrn_radiation_probe          x-ray
_diffrn_radiation_type           'Mo K\a'
_diffrn_radiation_wavelength     0.71073
_diffrn_reflns_av_R_equivalents  0.0230
_diffrn_reflns_av_unetI/netI     0.0261
_diffrn_reflns_Laue_measured_fraction_full 0.9848
_diffrn_reflns_Laue_measured_fraction_max 0.8317
_diffrn_reflns_limit_h_max       6
_diffrn_reflns_limit_h_min       -6
_diffrn_reflns_limit_k_max       19
_diffrn_reflns_limit_k_min       -22
_diffrn_reflns_limit_l_max       9
_diffrn_reflns_limit_l_min       -10
_diffrn_reflns_number            1613
_diffrn_reflns_point_group_measured_fraction_full 0.8728
_diffrn_reflns_point_group_measured_fraction_max 0.6918
_diffrn_reflns_theta_full        25.2417
_diffrn_reflns_theta_max         31.84
_diffrn_reflns_theta_min         4.78
_diffrn_source                   'Rotating-anode X-ray tube'
_diffrn_source_type              'Rigaku (Mo) X-ray Source'
_exptl_absorpt_coefficient_mu    10.836
_exptl_absorpt_correction_T_max  0.476
_exptl_absorpt_correction_T_min  0.318
_exptl_absorpt_correction_type   gaussian
_exptl_absorpt_process_details
;
CrysAlisPro 1.171.42.35a (Rigaku Oxford Diffraction, 2021)
Numerical absorption correction based on gaussian integration over
a multifaceted crystal model
Empirical absorption correction using spherical harmonics,
implemented in SCALE3 ABSPACK scaling algorithm.
;
_exptl_crystal_colour            colourless
_exptl_crystal_colour_primary    colourless
_exptl_crystal_density_diffrn    3.156
_exptl_crystal_description       prism
_exptl_crystal_F_000             500.597
_exptl_crystal_preparation       Luminescent
_exptl_crystal_recrystallization_method 'Re-crystallisation from solvent: water'
_exptl_crystal_size_max          0.14
_exptl_crystal_size_mid          0.13
_exptl_crystal_size_min          0.1
_refine_diff_density_max         1.8867
_refine_diff_density_min         -1.2569
_refine_diff_density_rms         0.1698
_refine_ls_abs_structure_details
'Hooft, R.W.W., Straver, L.H., Spek, A.L. (2010). J. Appl. Cryst., 43, 665-668.'
_refine_ls_abs_structure_Flack   0.3(2)
_refine_ls_d_res_high            0.6736
_refine_ls_d_res_low             4.2629
_refine_ls_goodness_of_fit_ref   1.0629
_refine_ls_hydrogen_treatment    constr
_refine_ls_matrix_type           full
_refine_ls_number_constraints    4
_refine_ls_number_parameters     59
_refine_ls_number_reflns         779
_refine_ls_number_restraints     64
_refine_ls_restrained_S_all      1.0193
_refine_ls_R_factor_all          0.0224
_refine_ls_R_factor_gt           0.0213
_refine_ls_shift/su_max          0.0010
_refine_ls_shift/su_mean         0.0001
_refine_ls_structure_factor_coef Fsqd
_refine_ls_weighting_details
'w=1/[\s^2^(Fo^2^)+(0.0303P)^2^+3.1050P] where P=(Fo^2^+2Fc^2^)/3'
_refine_ls_weighting_scheme      calc
_refine_ls_wR_factor_gt          0.0519
_refine_ls_wR_factor_ref         0.0527
_reflns_Friedel_coverage         0.532
_reflns_limit_h_max              6
_reflns_limit_h_min              -6
_reflns_limit_k_max              20
_reflns_limit_k_min              -22
_reflns_limit_l_max              9
_reflns_limit_l_min              -10
_reflns_number_gt                755
_reflns_number_total             779
_reflns_threshold_expression     I>=2u(I)
_iucr_refine_instructions_details
;
TITL eu_burak4_c.res in Amm2
REM Old TITL Eu_Burak4 in Cmm2
REM SHELXT solution in Amm2
REM R1 0.039, Rweak 0.011, Alpha 0.019, Orientation a'=c, b'=-b, c'=a
REM Flack x = 0.445 ( 0.041 ) from Parsons' quotients
REM Formula found by SHELXT: C5 O4 Eu
CELL 0.71073 4.807 15.1947 7.8938 90 90 90
ZERR 4 0.0004 0.0009 0.0006 0 0 0
LATT -5
SYMM -X,-Y,+Z
SYMM +X,-Y,+Z
SYMM -X,+Y,+Z
SFAC C H Eu O
UNIT 8 8 4 24
SIMU O1 O2 C1 C2
RIGU 0.002 0.002 O1 O2 C1 C2
SIMU O3 O4 C3
RIGU 0.002 0.002 O3 O4 C3
ISOR 0.01 0.02 O5
DFIX 0.84 0.005 O5 H5b O5 H5a
DFIX 1.33 0.005 H5b H5a

L.S. 10
PLAN  20
SIZE 0.1 0.13 0.14
TEMP -172
CONF
CONN 9 2 Eu1
BOND $H
LIST 6
FMAP 2
MORE -1
ACTA 
BASF 0.415507
TWIN -1 0 0 0 -1 0 0 0 -1 2
WGHT 0.030311 3.105039
FVAR 0.375847
REM <olex2.extras>
REM <HklSrc "%.\\Eu_Burak4.hkl">
REM </olex2.extras>

Eu1   3     1.00000  0.70722  0.63607  10.50000  0.00658  0.00889  0.00772 =
 0.00049 -0.00000 -0.00000 
O1    4     1.00000  0.57082  0.46282  10.50000  0.02397  0.00955  0.00633 =
 -0.00470 -0.00000 -0.00000 
O2    4     1.00000  0.57660  0.80174  10.50000  0.04604  0.00968  0.01453 =
 0.00001 -0.00000 -0.00000 
O3    4     0.50000  0.68049  0.58069  10.50000  0.00970  0.01542  0.01491 =
 0.00290 -0.00000 -0.00000 
O4    4     0.73583  0.74982  0.38117  11.00000  0.00960  0.02972  0.01645 =
 0.01138 -0.00207 -0.00191 
O5    4     1.00000  0.86596  0.64094  10.50000  0.13311  0.00956  0.01184 =
 0.00012 -0.00000 -0.00000 
AFIX 147
H5a   2     1.00000  0.90097  0.72333  10.50000 -1.50000 
AFIX 0
AFIX 147
H5b   2     1.00000  0.89851  0.55491  10.50000 -1.50000 
AFIX 0
C1    1     1.00000  0.50000  0.53878  10.25000  0.00926  0.01336  0.01395 =
 0.00000 -0.00000 -0.00000 
C2    1     1.00000  0.50000  0.73439  10.25000  0.03158  0.01172  0.01290 =
 0.00000 -0.00000 -0.00000 
C3    1     0.50000  0.72468  0.44102  10.50000  0.00954  0.01404  0.01393 =
 0.00242 -0.00000 -0.00000 
HKLF 4

END
Q1 1 1 0.75 0.63333 11 0.05 1.89
Q3 1 1 0.65 0.63333 11 0.05 1.26
Q2 1 0.88889 0.85 0.63333 11 0.05 1.28
Q4 1 1 0.7 0.73333 11 0.05 0.73
Q5 1 1 0.7 0.53333 11 0.05 0.66

  REM The information below was added by Olex2.
  REM
  REM R1 = 0.0213 for 755 Fo > 4sig(Fo) and 0.0224 for all 779 data
  REM 59 parameters refined using 64 restraints
  REM Highest difference peak 1.8867, deepest hole -1.2569
  REM Mean Shift 0.0001, Max Shift 0.0010.

  REM +++ Tabular Listing of Refinement Information +++
  REM R1_all = 0.0224
  REM R1_gt = 0.0213
  REM wR_ref = 0.0527
  REM GOOF = 1.0629
  REM Shift_max = 0.0010
  REM Shift_mean = 0.0001
  REM Reflections_all = 779
  REM Reflections_gt = 755
  REM Parameters = 59
  REM Hole = -1.2569
  REM Peak = 1.8867
  REM Flack = 0.3(2)

  
;
_cod_data_source_file            d2ce01105k2.cif
_cod_data_source_block           Eu_Burak4
_cod_original_sg_symbol_Hall     ' A 2 -2'
_cod_database_code               7245721
_shelx_shelxl_version_number     2014/7
_chemical_oxdiff_formula         C2H2Eu1O6
_chemical_oxdiff_usercomment     unclear
_olex2_refinement_description
;
1. Twinned data refinement
 Scales: 0.58(6)
 0.42(6)
2. Fixed Uiso
 At 1.5 times of:
  All O(H,H) groups
3. Restrained distances
 O5-H5b = O5-H5a
 0.84 with sigma of 0.005
 H5b-H5a
 1.33 with sigma of 0.005
4. Uiso/Uaniso restraints and constraints
O1 \\sim O2 \\sim C1 \\sim C2: within 2A with sigma of 0.04 and sigma for
terminal atoms of 0.08 within 2A
O3 \\sim O4 \\sim C3: within 2A with sigma of 0.04 and sigma for terminal atoms
of 0.08 within 2A
Uanis(O5) \\sim Ueq: with sigma of 0.01 and sigma for terminal atoms of 0.02
5. Rigid body (RIGU) restrains
 O1, O2, C1, C2
 with sigma for 1-2 distances of 0.002 and sigma for 1-3 distances of 0.002
 O3, O4, C3
 with sigma for 1-2 distances of 0.002 and sigma for 1-3 distances of 0.002
6.a Idealised tetrahedral OH refined as rotating group:
 O5(H5a), O5(H5b)
;
_iucr_refine_fcf_details
;
data_Eu_Burak4_CCDC1
_computing_structure_refinement   'olex2.refine 1.5-ac5-018 (Bourhis et al., 2015)'
_shelx_refln_list_code            4
loop_
  _space_group_symop_id
  _space_group_symop_operation_xyz
  1  x,y,z
  2  -x,-y,z
  3  -x,y,z
  4  x,-y,z
  5  x,y+1/2,z+1/2
  6  -x,-y+1/2,z+1/2
  7  -x,y+1/2,z+1/2
  8  x,-y+1/2,z+1/2

_space_group_crystal_system       orthorhombic
_space_group_IT_number            38
_space_group_name_H-M_alt         'A m m 2'
_space_group_name_Hall            ' A 2 -2'
_symmetry_space_group_name_H-M    'A m m 2'
_symmetry_space_group_name_Hall   ' A 2 -2'
_symmetry_Int_Tables_number       38
_cell_length_a                    4.8070(4)
_cell_length_b                    15.1947(9)
_cell_length_c                    7.8938(6)
_cell_angle_alpha                 90
_cell_angle_beta                  90
_cell_angle_gamma                 90
_cell_volume                      576.57(7)
loop_
  _refln_index_h
  _refln_index_k
  _refln_index_l
  _refln_F_squared_calc
  _refln_F_squared_meas
  _refln_F_squared_sigma
  _refln_F_squared_weight
  _refln_observed_status
-6 -8 -4 2798.910 2745.010 219.093 21.189 o
-6 -7 -1 7837.300 7995.970 255.923 9.112 o
-6 -5 -1 9736.200 10380.100 283.423 6.608 o
-6 -4 -2 2731.870 3236.210 157.723 32.289 o
-6 -3 -3 4795.980 5075.490 198.800 17.389 o
-6 -3 -1 5266.380 5726.640 151.453 19.955 o
-6 -2 -4 5382.210 5753.860 234.686 13.049 o
-6 -1 -3 412.100 513.845 112.492 97.727 o
-6 -1 -1 1156.690 1169.150 57.229 166.398 o
-5 -13 -1 556.805 639.410 124.385 75.963 o
-5 -12 -2 8068.920 7363.530 322.468 7.130 o
-5 -11 -3 640.091 698.810 125.774 76.376 o
-5 -11 -1 274.422 349.471 83.613 157.689 o
-5 -10 -6 4336.970 4652.650 252.430 13.595 o
-5 -10 -4 6610.620 6193.490 184.153 14.254 o
-5 -10 -2 6771.840 5305.050 723.463 2.255 o
-5 -9 -5 2511.900 2504.190 199.875 25.865 o
-5 -9 -3 5215.720 4902.060 156.313 21.038 o
-5 -9 -1 4900.920 4598.750 168.100 20.118 o
-5 -8 -6 2753.940 2616.400 206.572 22.487 o
-5 -8 -4 3028.060 2906.710 191.236 23.116 o
-5 -8 -2 1700.310 1635.460 53.876 120.843 o
-5 -7 -7 6692.660 5120.220 308.952 8.778 o
-5 -7 -5 8499.380 8415.990 341.016 6.295 o
-5 -7 -3 8888.980 9193.170 239.569 8.251 o
-5 -7 -1 10161.700 9665.610 205.891 7.892 o
-5 -6 -6 29.521 159.957 73.428 211.311 o
-5 -6 -4 85.475 127.575 61.236 292.337 o
-5 -6 -2 4.143 7.657 18.477 2061.690 o
-5 -5 -7 6878.900 6580.050 323.483 7.613 o
-5 -5 -5 7334.480 7255.730 304.410 7.881 o
-5 -5 -3 11617.500 11401.100 196.123 6.662 o
-5 -5 -1 10775.500 10779.600 504.989 3.270 o
-5 -4 -6 1653.090 1645.840 159.783 38.662 o
-5 -4 -4 1783.230 2073.670 70.742 97.820 o
-5 -4 -2 4188.140 4624.030 166.161 22.513 o
-5 -3 -5 5301.630 5611.350 178.522 17.086 o
-5 -3 -3 6341.220 6705.690 132.374 16.976 o
-5 -3 -1 5077.380 5488.540 177.265 17.598 o
-5 -2 -6 6870.220 7601.790 599.136 2.989 o
-5 -2 -4 7968.150 8375.350 231.048 9.528 o
-5 -2 -2 11109.000 11394.400 170.127 7.185 o
-5 -1 -5 683.308 803.734 43.225 276.751 o
-5 -1 -3 406.413 543.416 41.442 384.179 o
-5 0 -6 10438.500 12141.300 412.269 4.070 o
-5 0 -4 8721.830 8766.780 500.603 3.737 o
-5 0 -2 13702.800 13755.800 341.016 3.907 o
-4 -15 -1 5379.870 5145.660 268.402 11.452 o
-4 -14 -6 5758.130 5856.890 272.011 10.757 o
-4 -14 -4 3434.440 3192.240 161.743 26.199 o
-4 -14 -2 5704.640 5319.650 271.876 11.015 o
-4 -13 -5 791.001 780.552 106.783 95.857 o
-4 -13 -3 2063.840 2022.620 153.096 40.135 o
-4 -13 -1 853.498 885.663 110.699 79.624 o
-4 -12 -6 8349.720 9301.650 363.174 5.774 o
-4 -12 -4 8522.150 8495.760 216.051 9.229 o
-4 -12 -2 12210.900 11603.700 357.355 4.419 o
-4 -11 -7 314.776 533.211 130.412 73.776 o
-4 -11 -5 479.608 572.002 70.035 180.322 o
-4 -11 -3 295.827 360.226 47.992 333.973 o
-4 -11 -1 111.401 173.940 60.356 402.746 o
-4 -10 -6 7204.490 8306.620 356.474 6.572 o
-4 -10 -4 6568.140 6358.520 150.994 16.297 o
-4 -10 -2 12917.800 13036.700 358.060 4.091 o
-4 -9 -5 3975.730 3847.360 218.982 17.396 o
-4 -9 -3 5144.640 4937.850 106.226 25.305 o
-4 -9 -1 5665.650 5509.280 228.053 13.493 o
-4 -8 -4 2475.920 2442.240 94.611 60.889 o
-4 -8 -2 5974.820 5967.950 121.760 20.257 o
-4 -7 -7 8479.780 7981.850 339.028 6.593 o
-4 -7 -5 13144.200 12122.000 353.420 4.163 o
-4 -7 -3 10409.600 10212.300 181.522 7.953 o
-4 -7 -1 15746.300 14554.600 605.414 2.123 o
-4 -6 -8 0.234 -6.027 68.443 199.695 o
-4 -6 -4 138.240 100.690 36.125 867.031 o
-4 -6 -2 1288.360 1224.520 58.697 148.978 o
-4 -5 -7 7604.120 6812.180 304.894 8.104 o
-4 -5 -5 10654.900 10302.700 1121.540 0.962 o
-4 -5 -3 16828.900 16545.000 232.716 3.663 o
-4 -5 -1 19389.200 19358.100 482.826 2.092 o
-4 -4 -8 2430.120 2676.430 191.590 26.379 o
-4 -4 -6 1257.670 1238.020 127.628 60.612 o
-4 -4 -4 4548.080 4891.590 116.183 27.136 o
-4 -4 -2 1958.080 2195.640 71.180 88.250 o
-4 -3 -9 2800.070 2637.840 203.296 22.992 o
-4 -3 -7 4547.350 4918.430 130.996 26.123 o
-4 -3 -5 7532.850 7855.700 733.330 2.199 o
-4 -3 -3 9689.650 10200.300 183.560 8.697 o
-4 -3 -1 10382.500 10656.600 161.698 8.365 o
-4 -2 -8 6792.610 7068.500 184.062 13.440 o
-4 -2 -6 6551.120 6940.980 203.327 13.052 o
-4 -2 -4 16758.300 16406.300 766.556 1.482 o
-4 -2 -2 10543.400 10636.500 131.379 8.741 o
-4 -1 -7 663.534 758.746 50.941 265.308 o
-4 -1 -5 994.733 1013.350 70.415 149.572 o
-4 -1 -3 531.232 668.416 26.296 491.465 o
-4 -1 -1 2625.080 2783.880 84.629 60.763 o
-4 0 -8 7872.830 8106.960 257.528 8.919 o
-4 0 -6 10976.100 10776.600 289.349 5.972 o
-4 0 -4 18124.100 18622.300 262.905 3.054 o
-4 0 -2 14426.900 14504.000 334.945 3.896 o
-3 -18 -2 25.664 54.544 43.329 699.720 o
-3 -17 -5 6852.200 7246.780 289.142 9.002 o
-3 -17 -1 8201.290 7834.050 183.588 11.129 o
-3 -16 -6 819.040 839.922 117.538 77.625 o
-3 -16 -4 1469.620 1358.800 123.763 65.801 o
-3 -16 -2 1958.460 1814.410 85.457 78.299 o
-3 -15 -5 4708.890 4951.190 233.272 14.548 o
-3 -15 -3 3814.900 3973.660 150.803 27.079 o
-3 -15 -1 7515.520 7268.920 194.285 12.066 o
-3 -14 -6 5649.120 6005.390 284.694 10.306 o
-3 -14 -4 5241.420 5140.570 201.188 16.646 o
-3 -14 -2 8450.570 7392.540 641.055 2.684 o
-3 -13 -7 712.353 813.284 134.889 62.166 o
-3 -13 -5 1275.390 1209.580 124.562 60.965 o
-3 -13 -3 1744.880 1776.720 90.105 77.825 o
-3 -13 -1 804.314 789.780 55.272 223.679 o
-3 -12 -6 8511.300 8623.700 264.135 8.032 o
-3 -12 -4 12541.400 12204.600 357.611 4.317 o
-3 -12 -2 16214.900 16002.600 232.626 3.849 o
-3 -11 -7 230.053 253.612 68.772 249.183 o
-3 -11 -5 201.312 253.494 86.519 187.333 o
-3 -11 -3 1159.920 1167.710 64.112 154.649 o
-3 -11 -1 338.391 339.833 38.298 488.655 o
-3 -10 -8 5796.100 7525.840 394.139 6.121 o
-3 -10 -6 7826.900 8410.250 407.186 5.238 o
-3 -10 -4 9127.900 9034.480 216.065 8.727 o
-3 -10 -2 13404.800 13242.200 237.957 4.984 o
-3 -9 -7 3598.950 3628.920 167.971 25.158 o
-3 -9 -5 3723.860 3485.630 98.741 41.250 o
-3 -9 -3 9578.180 9091.060 187.353 9.258 o
-3 -9 -1 8496.360 8490.640 336.421 6.271 o
-3 -8 -8 1886.490 1570.930 163.603 37.217 o
-3 -8 -6 5817.750 5924.090 219.076 13.391 o
-3 -8 -4 3510.500 3217.020 160.599 26.185 o
-3 -8 -2 3447.190 3383.500 85.674 45.094 o
-3 -7 -7 11642.700 11258.200 310.431 5.165 o
-3 -7 -5 15422.400 14118.000 198.009 4.494 o
-3 -7 -3 15295.700 14110.200 342.387 3.589 o
-3 -7 -1 20354.600 19483.400 224.439 2.701 o
-3 -6 -8 103.391 23.392 52.082 421.605 o
-3 -6 -6 11.393 34.588 31.193 793.850 o
-3 -6 -4 79.866 0.073 31.188 955.406 o
-3 -6 -2 195.064 254.424 37.338 608.799 o
-3 -5 -9 9556.140 8994.500 371.719 5.376 o
-3 -5 -7 11411.100 10726.700 192.792 6.900 o
-3 -5 -5 12128.900 12103.300 217.982 5.855 o
-3 -5 -3 23218.000 23194.500 453.849 1.694 o
-3 -5 -1 20196.100 19694.100 231.937 2.669 o
-3 -4 -8 2773.240 2548.890 112.936 48.002 o
-3 -4 -6 1593.800 1616.860 85.124 87.320 o
-3 -4 -4 4227.840 4366.910 91.364 35.357 o
-3 -4 -2 5476.620 5874.120 133.901 20.435 o
-3 -3 -9 4513.990 4532.900 345.147 8.799 o
-3 -3 -7 7117.180 6851.540 106.593 16.429 o
-3 -3 -5 8825.030 8794.390 146.333 10.727 o
-3 -3 -3 11534.800 12117.100 289.812 5.230 o
-3 -3 -1 8249.020 8470.050 158.099 11.103 o
-3 -2 -10 4435.430 4304.100 262.729 13.393 o
-3 -2 -8 9931.940 9443.370 210.263 8.125 o
-3 -2 -6 9421.660 8949.030 134.512 10.126 o
-3 -2 -4 18366.600 18485.600 216.097 3.181 o
-3 -2 -2 18143.100 17875.000 280.178 2.960 o
-3 -1 -9 398.449 420.789 71.709 195.849 o
-3 -1 -7 1066.920 1123.690 45.020 202.999 o
-3 -1 -5 1234.740 1201.480 54.099 158.359 o
-3 -1 -3 278.363 354.315 41.560 414.514 o
-3 -1 -1 2535.650 2755.700 62.036 72.070 o
-3 0 -10 6938.790 7269.060 342.429 7.106 o
-3 0 -8 12150.900 11486.300 399.532 4.011 o
-3 0 -6 17102.800 16065.100 266.045 3.378 o
-3 0 -4 18971.900 18849.300 399.291 2.374 o
-3 0 -2 21666.300 21407.400 233.900 2.337 o
-2 -20 -2 3340.910 3514.650 184.123 23.434 o
-2 -19 -5 4000.010 4214.430 223.123 16.339 o
-2 -19 -3 7057.440 7285.060 282.141 8.771 o
-2 -19 -1 6083.630 6121.290 145.358 17.711 o
-2 -18 -4 111.295 236.281 75.486 251.931 o
-2 -18 -2 392.301 341.748 43.779 389.635 o
-2 -17 -5 7080.720 6892.230 287.812 8.756 o
-2 -17 -3 8574.750 8371.920 319.832 6.654 o
-2 -17 -1 7444.250 7589.910 153.302 13.036 o
-2 -16 -6 731.303 785.826 116.786 77.746 o
-2 -16 -4 2245.420 2211.760 93.940 63.654 o
-2 -16 -2 621.258 650.352 87.924 120.908 o
-2 -15 -7 4455.000 5175.350 277.309 11.854 o
-2 -15 -5 4332.320 4305.830 219.355 16.567 o
-2 -15 -3 4919.430 5128.830 160.643 20.515 o
-2 -15 -1 7420.880 7597.200 168.234 12.740 o
-2 -14 -6 6333.410 6706.220 212.212 12.624 o
-2 -14 -4 7776.900 7884.550 319.884 6.961 o
-2 -14 -2 5315.850 5297.890 101.518 24.675 o
-2 -13 -7 1017.900 1020.380 98.768 93.541 o
-2 -13 -5 796.437 778.640 52.145 239.023 o
-2 -13 -3 3884.200 3981.980 157.417 26.311 o
-2 -13 -1 1062.960 1092.190 70.817 135.659 o
-2 -12 -8 9906.460 11022.700 451.083 3.984 o
-2 -12 -6 8598.670 8277.920 164.495 10.797 o
-2 -12 -4 19076.400 18999.100 220.551 2.955 o
-2 -12 -2 13746.400 13624.300 164.004 5.427 o
-2 -11 -7 192.221 146.703 77.351 207.768 o
-2 -11 -5 751.024 755.176 55.474 207.377 o
-2 -11 -3 255.617 230.823 22.514 819.637 o
-2 -11 -1 75.640 114.700 29.269 1935.370 o
-2 -10 -8 7942.450 8514.690 1080.050 1.056 o
-2 -10 -6 6415.280 6327.960 170.003 15.344 o
-2 -10 -4 15254.800 14586.300 228.973 4.367 o
-2 -10 -2 12330.400 11804.700 136.152 6.822 o
-2 -9 -7 3825.650 4138.800 171.563 23.343 o
-2 -9 -5 6284.170 6383.360 150.232 16.459 o
-2 -9 -3 7808.500 7532.680 89.048 14.797 o
-2 -9 -1 8725.040 8555.190 126.213 11.797 o
-2 -8 -8 2619.510 2552.650 149.189 37.654 o
-2 -8 -6 3690.790 3701.710 137.200 31.516 o
-2 -8 -4 7745.760 7386.960 149.826 13.612 o
-2 -8 -2 2990.280 2735.490 62.021 66.573 o
-2 -7 -9 6222.800 6347.980 315.905 8.222 o
-2 -7 -7 12492.600 12004.900 233.441 5.742 o
-2 -7 -5 23929.300 23982.000 428.868 1.675 o
-2 -7 -3 15886.900 15203.800 208.683 4.094 o
-2 -7 -1 31641.000 30503.000 288.590 1.235 o
-2 -6 -8 472.552 400.775 51.518 313.094 o
-2 -6 -6 931.689 933.791 57.672 188.393 o
-2 -6 -4 1411.530 1182.530 68.090 128.411 o
-2 -6 -2 172.709 271.071 97.590 134.133 o
-2 -5 -9 10142.800 10050.200 402.876 4.558 o
-2 -5 -7 10651.500 10092.000 183.510 8.028 o
-2 -5 -5 17374.600 16721.800 223.322 3.571 o
-2 -5 -3 31991.500 31747.400 423.952 1.096 o
-2 -5 -1 39117.600 38503.000 453.969 0.777 o
-2 -4 -10 2813.230 3084.620 167.215 29.906 o
-2 -4 -8 1362.870 1297.950 55.086 144.667 o
-2 -4 -6 4562.650 4505.490 134.044 26.422 o
-2 -4 -4 1716.420 1599.770 82.445 80.835 o
-2 -4 -2 11164.800 11271.000 273.646 5.944 o
-2 -3 -9 3951.840 3959.420 171.777 23.393 o
-2 -3 -7 5942.030 5509.830 102.945 22.722 o
-2 -3 -5 11805.300 11361.900 176.093 7.054 o
-2 -3 -3 16403.200 15688.600 227.106 3.934 o
-2 -3 -1 18304.700 19005.300 245.370 3.088 o
-2 -2 -10 6802.710 7023.820 242.641 10.744 o
-2 -2 -8 6276.290 5837.850 102.262 20.250 o
-2 -2 -6 16745.100 15927.300 165.494 4.115 o
-2 -2 -4 17047.800 16828.800 206.437 3.649 o
-2 -2 -2 42516.700 43499.100 357.981 0.686 o
-2 -1 -9 249.191 195.501 92.774 128.686 o
-2 -1 -7 895.889 956.566 46.768 238.789 o
-2 -1 -5 1665.010 1591.810 58.224 123.800 o
-2 -1 -3 220.836 218.448 30.458 970.920 o
-2 -1 -1 5961.890 6400.610 128.689 19.115 o
-2 0 -10 9785.860 10607.200 429.702 4.213 o
-2 0 -8 7420.950 7298.140 182.748 12.140 o
-2 0 -6 29364.200 28543.100 396.060 1.319 o
-2 0 -4 17703.600 16258.900 369.459 2.837 o
-2 0 -2 54388.900 55629.000 849.868 0.367 o
-1 -22 -2 3840.130 4004.020 224.100 18.108 o
-1 -21 -3 1670.810 1694.870 148.691 44.228 o
-1 -21 -1 2555.910 2588.240 121.800 45.830 o
-1 -20 -2 3159.110 3195.890 110.253 43.414 o
-1 -19 -3 8516.440 8185.780 240.738 8.956 o
-1 -19 -1 8379.560 8437.860 157.250 11.517 o
-1 -18 -2 92.572 146.321 37.480 734.915 o
-1 -17 -5 8481.740 8733.090 241.160 8.874 o
-1 -17 -3 9513.440 9574.600 200.417 8.691 o
-1 -17 -1 10383.500 10589.200 213.222 7.391 o
-1 -16 -6 771.565 795.589 84.994 129.037 o
-1 -16 -4 2010.470 1912.430 87.402 81.216 o
-1 -16 -2 2096.360 1991.460 106.730 59.798 o
-1 -15 -7 3900.190 3754.330 242.268 16.281 o
-1 -15 -5 5524.860 5623.590 138.025 20.351 o
-1 -15 -3 4264.460 4212.480 112.929 30.986 o
-1 -15 -1 9337.680 9760.460 154.156 9.891 o
-1 -14 -6 7339.770 7706.280 165.236 13.107 o
-1 -14 -4 7592.010 7640.620 156.118 13.361 o
-1 -14 -2 10781.100 10793.700 160.545 7.986 o
-1 -13 -7 914.214 977.781 124.216 68.814 o
-1 -13 -5 1499.690 1484.660 88.753 86.480 o
-1 -13 -3 2699.190 2818.130 110.708 46.621 o
-1 -13 -1 886.744 888.888 53.586 218.066 o
-1 -12 -8 9313.800 9581.840 282.667 6.977 o
-1 -12 -6 10464.300 10525.900 189.209 7.725 o
-1 -12 -4 19103.400 18554.600 320.623 2.706 o
-1 -12 -2 22664.000 22660.400 330.673 2.036 o
-1 -11 -7 169.719 214.637 36.407 736.710 o
-1 -11 -5 172.687 206.637 35.886 869.264 o
-1 -11 -3 1398.360 1324.180 74.041 121.789 o
-1 -11 -1 248.914 307.013 31.623 709.410 o
-1 -10 -8 7670.280 8050.800 184.436 11.450 o
-1 -10 -6 8995.140 9062.270 166.576 10.040 o
-1 -10 -4 12888.600 12379.400 185.170 5.934 o
-1 -10 -2 16498.600 16271.400 207.661 3.801 o
-1 -9 -9 4107.460 4194.900 120.345 31.375 o
-1 -9 -7 4332.510 4555.990 91.200 32.517 o
-1 -9 -5 4752.690 4670.940 97.628 30.852 o
-1 -9 -3 14020.800 13857.200 187.052 5.230 o
-1 -9 -1 12153.400 12266.300 192.662 6.115 o
-1 -8 -8 2403.120 2474.750 88.805 63.042 o
-1 -8 -6 6932.500 7237.850 212.187 11.644 o
-1 -8 -4 4794.450 4691.970 86.876 28.826 o
-1 -8 -2 2430.700 2160.790 76.615 69.921 o
-1 -7 -9 6737.520 7026.970 176.080 13.822 o
-1 -7 -7 16343.900 16576.700 220.732 3.761 o
-1 -7 -5 24267.400 23613.700 392.425 1.730 o
-1 -7 -3 22581.200 22170.300 264.023 2.186 o
-1 -7 -1 36648.200 36921.000 352.482 0.882 o
-1 -6 -8 329.189 354.805 33.091 575.460 o
-1 -6 -6 108.101 108.058 22.881 1419.840 o
-1 -6 -4 454.737 303.496 40.984 404.557 o
-1 -6 -2 203.212 232.829 17.949 1245.610 o
-1 -5 -9 12976.300 13925.100 207.348 5.399 o
-1 -5 -7 15328.000 15353.000 158.368 4.469 o
-1 -5 -5 17189.900 17351.600 202.161 3.492 o
-1 -5 -3 40327.300 41500.400 502.767 0.687 o
-1 -5 -1 34402.400 33980.200 275.402 1.027 o
-1 -4 -10 1644.010 1747.240 195.051 29.245 o
-1 -4 -8 2842.700 2839.760 65.466 65.583 o
-1 -4 -6 2083.830 2054.290 57.774 94.025 o
-1 -4 -4 4018.450 3937.940 87.956 39.653 o
-1 -4 -2 10008.800 10455.900 169.950 8.476 o
-1 -3 -9 5531.730 5750.710 134.142 20.825 o
-1 -3 -7 8869.870 8628.400 110.293 11.680 o
-1 -3 -5 11715.300 11535.300 140.958 7.121 o
-1 -3 -3 16578.900 16559.200 158.774 3.915 o
-1 -3 -1 8759.560 8621.480 122.561 11.092 o
-1 -2 -10 6116.770 6816.730 348.964 7.511 o
-1 -2 -8 12374.300 12626.700 270.867 5.170 o
-1 -2 -6 14246.900 14197.300 226.894 4.525 o
-1 -2 -4 26818.300 27776.800 278.846 1.572 o
-1 -2 -2 38157.000 40139.800 380.780 0.782 o
-1 -1 -9 367.649 443.492 74.669 185.952 o
-1 -1 -7 1329.210 1524.740 66.764 124.829 o
-1 -1 -5 1673.230 1657.430 45.569 131.836 o
-1 -1 -3 16.581 20.724 5.374 1965.380 o
-1 -1 -1 4340.730 4871.800 63.890 35.318 o
-1 0 -10 9756.780 11263.300 443.238 4.038 o
-1 0 -8 15401.700 15985.600 366.976 3.216 o
-1 0 -6 29698.000 30552.100 537.449 1.069 o
-1 0 -4 26741.200 26996.400 459.705 1.354 o
-1 0 -2 46743.700 46841.200 724.619 0.478 o
0 -21 -1 2551.110 2417.900 176.211 29.827 o
0 -20 -2 2586.470 2654.700 179.839 27.352 o
0 -19 -3 7952.680 8297.960 228.852 9.489 o
0 -19 -1 7249.630 7216.980 209.656 11.471 o
0 -18 -4 576.865 570.255 102.337 108.793 o
0 -18 -2 100.447 156.228 57.686 272.764 o
0 -17 -5 8677.330 8820.880 231.998 8.723 o
0 -17 -3 9090.410 9076.870 317.898 6.334 o
0 -17 -1 8547.790 8942.010 219.745 8.858 o
0 -16 -6 1649.780 1724.920 158.565 40.424 o
0 -16 -4 1157.540 1158.370 81.247 108.971 o
0 -16 -2 1813.750 1800.080 95.639 72.680 o
0 -15 -5 5298.570 5420.930 254.122 12.207 o
0 -15 -3 4644.370 4941.740 152.576 22.439 o
0 -15 -1 8389.050 8585.250 201.957 9.865 o
0 -14 -6 10703.100 11150.400 257.797 6.334 o
0 -14 -4 5756.470 5776.150 239.691 11.656 o
0 -14 -2 10449.500 10589.800 313.263 5.642 o
0 -13 -7 793.436 784.531 76.151 145.283 o
0 -13 -5 1160.940 1141.590 76.802 127.098 o
0 -13 -3 4355.300 4197.440 194.115 19.777 o
0 -13 -1 1244.210 1278.170 70.980 123.501 o
0 -12 -6 14347.200 14382.000 473.030 2.861 o
0 -12 -4 16179.100 16118.700 287.904 3.452 o
0 -12 -2 26134.900 25494.200 432.580 1.492 o
0 -11 -7 325.300 325.670 71.917 221.503 o
0 -11 -5 488.323 437.212 67.046 185.609 o
0 -11 -3 332.968 309.058 39.013 416.297 o
0 -11 -1 94.450 77.882 57.180 723.222 o
0 -10 -8 5801.630 6119.660 241.352 11.934 o
0 -10 -6 11697.500 10869.000 309.646 5.332 o
0 -10 -4 10046.900 9856.370 202.989 8.181 o
0 -10 -2 25733.100 26213.800 528.512 1.349 o
0 -9 -9 4669.320 5249.660 299.593 10.261 o
0 -9 -5 6262.040 6257.290 207.832 13.089 o
0 -9 -3 10301.500 10302.800 259.420 6.509 o
0 -9 -1 9854.120 9742.720 174.724 8.836 o
0 -8 -8 1014.860 1196.890 170.222 41.007 o
0 -8 -4 2774.430 2614.760 121.458 46.971 o
0 -8 -2 11188.900 11098.300 256.757 6.274 o
0 -7 -9 6452.800 7327.800 180.105 13.302 o
0 -7 -7 16347.000 16767.800 382.276 2.979 o
0 -7 -5 29170.700 28427.500 735.294 0.940 o
0 -7 -3 21057.200 20625.200 395.596 2.084 o
0 -6 -8 7.692 60.071 37.957 1090.430 o
0 -6 -6 31.566 -9.262 55.153 570.413 o
0 -6 -4 274.109 81.515 64.555 299.601 o
0 -6 -2 8300.290 8880.640 203.101 9.846 o
0 -5 -9 11186.200 12445.900 251.181 5.869 o
0 -5 -7 13309.400 13399.800 212.394 5.362 o
0 -5 -5 19897.300 20369.400 441.128 2.127 o
0 -5 -3 46290.800 46770.900 907.466 0.450 o
0 -5 -1 57022.900 58373.600 873.660 0.336 o
0 -4 -10 1485.210 1905.670 196.865 27.871 o
0 -4 -8 3794.120 3952.350 383.761 7.789 o
0 -4 -6 1049.850 1109.820 62.953 158.594 o
0 -4 -4 9250.050 9377.200 344.159 5.731 o
0 -3 -9 4007.390 4156.830 165.790 23.777 o
0 -3 -7 6852.710 6758.810 132.338 16.657 o
0 -3 -5 13045.800 13234.700 176.641 5.927 o
0 -3 -3 21189.400 22386.500 1082.070 0.811 o
0 -3 -1 22215.400 22769.000 357.353 2.048 o
0 -2 -10 5011.030 5225.850 207.832 15.618 o
0 -2 -8 12270.000 12135.800 218.126 5.953 o
0 -2 -6 10205.000 10452.800 173.591 8.424 o
0 -2 -4 46263.400 49192.700 869.598 0.448 o
0 -2 -2 23577.200 25906.000 573.401 1.429 o
0 -1 -9 187.778 179.598 45.394 442.638 o
0 -1 -7 1019.660 1154.890 60.980 173.267 o
0 -1 -5 1858.340 1813.920 58.570 111.646 o
0 -1 -3 89.296 118.578 26.666 2966.700 o
0 0 -10 8013.570 8771.210 280.786 7.560 o
0 0 -8 14214.700 14529.700 345.581 3.750 o
0 0 -6 23837.100 24009.100 442.273 1.698 o
0 0 -4 47982.300 51159.600 778.318 0.447 o
0 0 -2 35559.800 37464.700 550.435 0.839 o
0 2 4 45927.600 50148.200 755.097 0.472 o
0 3 1 21547.900 21985.400 607.180 1.479 o
0 3 5 12468.800 12923.400 265.042 4.970 o
0 4 0 19843.200 20660.800 346.379 2.376 o
0 4 2 891.174 791.819 43.002 225.017 o
0 4 6 1043.370 1007.300 72.374 139.215 o
0 5 1 55961.700 56925.400 895.597 0.334 o
0 5 3 45760.800 45368.400 902.135 0.455 o
0 5 5 19598.100 19856.500 389.428 2.287 o
0 5 7 12997.400 12802.700 298.520 4.569 o
0 6 0 2006.200 2314.720 92.807 68.406 o
0 6 2 8286.100 9284.410 244.974 8.482 o
0 6 6 20.960 17.197 29.948 948.444 o
0 7 1 44104.900 46006.200 672.312 0.536 o
0 7 3 21417.800 20542.400 559.694 1.692 o
0 7 7 16106.700 16035.100 360.146 3.119 o
0 8 0 6972.580 7163.610 137.076 15.288 o
0 8 2 10840.000 10484.400 322.878 5.283 o
0 8 4 2514.760 2349.880 185.512 25.595 o
0 8 6 8359.870 8125.870 234.849 8.903 o
0 8 8 965.522 1021.210 85.609 112.617 o
0 9 1 9807.010 9660.770 175.574 8.828 o
0 9 3 10676.300 10534.300 227.519 7.172 o
0 9 7 4985.650 5256.600 192.797 17.251 o
0 9 9 4751.400 4570.710 189.665 18.850 o
0 10 0 15974.200 15833.600 281.995 3.637 o
0 10 2 25734.500 26316.200 562.729 1.298 o
0 10 4 9815.860 9486.280 410.957 4.526 o
0 10 8 5918.880 6098.420 216.847 13.579 o
0 11 1 27.265 57.657 13.679 1307.990 o
0 11 3 429.428 313.797 60.511 311.587 o
0 11 7 302.249 214.838 59.285 280.818 o
0 12 0 11727.700 12098.500 224.115 6.094 o
0 12 2 26050.700 25430.700 581.262 1.273 o
0 12 4 16649.200 16459.100 384.373 2.979 o
0 12 8 8573.310 8666.330 277.602 7.727 o
0 13 1 1293.000 1461.530 76.360 115.566 o
0 13 3 4228.800 4112.950 153.106 24.504 o
0 13 5 1105.950 1280.550 181.440 33.520 o
0 13 7 822.822 924.873 98.804 103.268 o
0 14 0 13017.000 13323.800 253.239 5.007 o
0 14 2 10533.700 9997.340 349.308 5.243 o
0 14 4 6256.050 6130.590 291.344 10.039 o
0 15 1 8453.300 8779.400 236.445 8.838 o
0 15 3 4644.170 4788.690 270.593 12.189 o
0 15 5 5331.420 5477.400 275.444 11.102 o
0 16 0 382.282 426.591 64.880 235.667 o
0 16 2 1863.780 1936.630 112.002 61.916 o
0 16 4 1251.040 1360.160 109.547 79.463 o
0 17 1 8874.860 8954.550 222.934 9.019 o
0 17 3 9247.910 9615.630 274.644 7.203 o
0 17 5 8683.710 9439.640 367.127 5.585 o
0 18 0 454.785 519.343 63.562 229.887 o
0 18 2 136.231 171.896 58.728 416.291 o
0 18 4 549.377 605.245 87.284 131.044 o
0 19 3 8070.460 9423.260 345.074 6.275 o
0 20 0 1889.240 1842.260 141.652 45.235 o
1 0 4 27317.600 28659.800 438.357 1.357 o
1 1 3 133.525 147.349 40.621 1389.570 o
1 1 5 1722.040 1796.310 71.419 100.672 o
1 2 0 11014.800 11719.900 215.841 6.657 o
1 2 4 26777.800 28034.200 456.384 1.353 o
1 2 6 14855.300 15116.600 295.195 4.014 o
1 3 1 9485.940 9010.310 142.871 10.784 o
1 3 3 17058.200 16846.400 220.012 3.674 o
1 3 5 12063.300 11984.400 252.207 5.751 o
1 3 7 9122.030 9176.540 220.712 8.740 o
1 4 0 4397.440 4546.550 62.444 36.699 o
1 4 2 10018.800 10675.100 179.824 8.214 o
1 4 4 3750.920 3706.700 121.762 31.913 o
1 4 6 2148.920 2137.460 99.295 64.825 o
1 5 1 35152.700 34897.000 334.085 0.992 o
1 5 3 40700.200 41226.800 676.789 0.626 o
1 5 5 17763.700 17178.100 354.177 2.914 o
1 5 7 15732.400 15480.800 336.738 3.472 o
1 6 0 369.439 476.418 19.620 734.123 o
1 6 2 214.256 234.115 29.337 855.954 o
1 6 4 491.964 417.711 37.132 456.127 o
1 6 6 118.586 97.522 43.874 618.055 o
1 6 8 338.247 402.393 60.992 271.026 o
1 7 1 37107.900 37232.300 355.256 0.881 o
1 7 3 22590.400 22390.800 382.375 1.931 o
1 7 5 24308.800 23635.000 461.245 1.607 o
1 7 7 16501.700 16664.400 438.344 2.678 o
1 7 9 6749.610 6590.650 212.531 12.303 o
1 8 0 8150.060 7852.580 151.326 12.254 o
1 8 2 2562.270 2273.580 74.756 72.355 o
1 8 4 5197.060 4697.690 137.287 24.138 o
1 8 6 6994.390 6698.080 211.806 12.054 o
1 8 8 2411.950 2354.330 126.980 45.819 o
1 9 1 12441.600 12388.000 164.237 6.462 o
1 9 3 13603.800 13503.200 237.405 4.805 o
1 9 5 4436.960 4261.550 118.196 27.734 o
1 9 7 4434.420 4283.540 174.395 21.713 o
1 9 9 3960.440 3734.310 163.901 24.273 o
1 10 0 19366.300 19231.000 232.107 2.882 o
1 10 2 16777.900 16468.400 277.373 3.472 o
1 10 4 12849.800 12455.900 760.471 1.714 o
1 10 6 9059.450 8423.400 260.642 7.912 o
1 10 8 7753.070 7856.640 198.138 11.139 o
1 11 1 240.161 281.526 23.340 925.341 o
1 11 3 1276.120 1089.860 63.891 134.394 o
1 11 5 121.459 91.799 37.255 562.691 o
1 11 7 151.615 215.418 55.642 328.800 o
1 11 9 65.124 75.559 43.827 386.531 o
1 12 0 16685.000 16113.500 190.638 3.901 o
1 12 2 22452.000 22220.900 385.219 1.928 o
1 12 4 18913.500 18112.900 909.230 1.085 o
1 12 6 10553.800 10056.300 304.198 5.918 o
1 12 8 9210.930 9159.310 286.506 6.933 o
1 13 1 818.889 763.375 38.624 274.488 o
1 13 3 2780.720 2642.090 197.326 24.803 o
1 13 5 1595.120 1684.960 140.835 50.471 o
1 13 7 913.966 933.272 99.238 97.627 o
1 14 0 17502.500 17810.700 192.969 3.496 o
1 14 2 10670.900 10861.000 241.618 6.612 o
1 14 4 7321.290 7291.960 372.547 6.074 o
1 14 6 7224.320 7396.030 274.720 8.861 o
1 15 1 9093.290 9116.730 144.724 10.303 o
1 15 3 4261.690 4284.370 137.442 26.918 o
1 15 5 5526.490 5477.930 221.238 14.018 o
1 16 0 971.495 1010.120 47.772 211.384 o
1 16 2 2140.280 2152.100 115.820 55.000 o
1 16 4 1810.720 1706.650 99.260 66.791 o
1 17 1 10373.100 10713.000 204.739 7.497 o
1 17 3 9365.840 9358.010 234.027 7.915 o
1 17 5 8202.400 8480.500 308.173 6.973 o
1 18 0 436.391 478.137 43.892 375.017 o
1 18 2 94.847 175.684 80.870 193.686 o
1 18 4 272.048 428.955 67.886 239.334 o
1 19 1 8252.470 8639.320 313.087 6.899 o
1 19 3 8367.630 9149.920 327.606 6.413 o
1 20 0 2622.890 2921.120 126.946 41.964 o
2 0 0 69221.200 70783.700 1036.170 0.229 o
2 0 2 53142.200 56330.800 864.004 0.357 o
2 0 4 17785.000 17358.700 280.157 3.152 o
2 1 1 5851.720 6389.470 99.957 20.912 o
2 1 3 157.509 200.291 16.620 1271.430 o
2 1 5 1587.930 1565.400 63.562 113.515 o
2 2 0 14604.000 14046.600 149.576 5.101 o
2 2 2 41779.000 43574.400 716.315 0.566 o
2 2 4 17094.700 16944.500 309.709 3.174 o
2 2 6 16217.700 16310.500 300.132 3.352 o
2 3 1 17912.200 18490.100 171.809 3.347 o
2 3 3 15952.800 16196.300 364.684 3.074 o
2 3 5 11361.300 11352.500 240.396 6.042 o
2 3 7 5723.050 5601.120 154.696 17.978 o
2 4 0 2294.020 2367.400 61.457 82.736 o
2 4 2 10945.400 11587.600 284.615 5.636 o
2 4 6 4410.940 4297.390 139.517 25.383 o
2 4 8 1423.010 1403.800 84.594 101.223 o
2 5 1 38446.600 37143.300 450.684 0.788 o
2 5 3 31572.100 31441.300 617.146 0.936 o
2 5 5 17080.200 16025.100 335.974 3.079 o
2 5 7 10414.600 10058.800 246.429 6.808 o
2 6 0 861.860 933.948 46.868 232.286 o
2 6 2 164.546 192.801 28.262 932.321 o
2 6 6 925.482 987.470 78.642 131.774 o
2 6 8 468.275 435.058 61.496 242.526 o
2 7 1 31185.600 30368.600 831.948 0.781 o
2 7 3 16157.400 15679.100 245.318 3.866 o
2 7 5 23965.100 22414.600 456.034 1.677 o
2 7 7 12269.200 11485.900 289.117 5.125 o
2 7 9 6469.420 6928.320 212.626 12.777 o
2 8 0 15905.700 15457.700 344.842 3.326 o
2 8 2 2799.810 2596.250 90.973 53.257 o
2 8 4 7443.160 7018.920 213.300 10.904 o
2 8 6 3563.590 3298.360 147.465 29.408 o
2 8 8 2467.430 2286.390 123.275 45.015 o
2 9 1 8696.110 8519.870 142.649 11.351 o
2 9 3 8107.020 7782.870 188.336 11.366 o
2 9 5 6409.690 6127.350 190.633 14.429 o
2 9 7 3879.210 3761.810 166.037 25.079 o
2 9 9 4770.510 4883.300 188.506 18.511 o
2 10 0 23850.000 23293.900 229.217 2.056 o
2 10 2 12413.600 11989.200 181.975 6.314 o
2 10 4 14918.000 14266.700 490.005 2.671 o
2 10 6 6376.190 6046.710 155.655 16.434 o
2 10 8 7898.140 7563.640 247.121 9.302 o
2 11 1 28.724 36.645 45.060 223.645 o
2 11 3 341.472 334.817 46.609 475.282 o
2 11 5 828.565 807.987 64.466 191.822 o
2 11 7 183.893 122.360 57.880 327.566 o
2 12 0 16563.200 16075.500 209.300 3.852 o
2 12 2 13790.000 13330.600 206.828 5.156 o
2 12 4 19318.600 18734.400 583.221 1.808 o
2 12 6 8818.500 8570.810 198.484 9.819 o
2 12 8 9831.400 9474.530 295.958 6.404 o
2 13 1 1112.640 1226.020 77.203 126.383 o
2 13 3 3780.440 3870.210 112.027 34.245 o
2 13 5 745.234 799.920 66.130 172.542 o
2 13 7 1038.190 973.113 73.120 141.206 o
2 14 0 15349.800 14611.700 209.266 4.385 o
2 14 2 5411.150 5564.610 153.542 19.628 o
2 14 4 8129.530 8002.760 216.655 10.298 o
2 14 6 6406.780 6265.780 204.995 13.424 o
2 15 1 7462.510 7471.510 161.055 13.178 o
2 15 3 4920.970 5197.920 167.780 19.713 o
2 15 5 4387.380 4256.510 154.892 24.242 o
2 16 0 1384.540 1421.870 58.230 138.288 o
2 16 2 688.645 780.603 73.467 174.453 o
2 16 4 2299.190 2370.970 118.704 50.987 o
2 17 1 7717.330 7811.220 204.448 11.174 o
2 17 3 8725.550 9041.220 229.398 8.795 o
2 18 0 26.281 36.324 30.140 1315.060 o
2 18 2 422.003 469.805 68.042 225.117 o
2 19 1 6099.530 6164.630 251.651 11.299 o
2 20 0 1082.130 1174.840 121.973 67.622 o
3 0 2 22364.500 22289.900 412.397 1.934 o
3 1 1 2549.930 2858.350 71.618 66.641 o
3 1 5 1285.410 1421.110 63.117 138.712 o
3 2 0 12524.900 12285.200 234.318 5.583 o
3 2 2 18723.300 18525.700 389.624 2.548 o
3 2 6 9858.650 9417.380 202.366 8.632 o
3 3 1 8647.650 8684.030 258.320 8.394 o
3 3 3 11833.700 11897.300 317.717 5.032 o
3 3 5 9080.290 8931.730 214.668 9.024 o
3 3 7 7315.050 7316.850 178.989 12.928 o
3 4 0 5633.430 5930.980 178.366 16.498 o
3 4 2 5497.980 5865.710 200.875 15.209 o
3 4 6 1673.060 1698.650 91.060 84.490 o
3 4 8 2717.480 2713.990 106.692 48.804 o
3 5 1 20662.600 20140.000 205.801 2.726 o
3 5 3 23382.400 22979.900 511.969 1.594 o
3 5 7 11735.800 11588.300 268.267 5.755 o
3 6 0 250.016 279.643 27.971 797.327 o
3 6 2 202.853 261.934 44.610 496.653 o
3 6 4 100.422 53.231 59.653 408.269 o
3 6 6 18.940 32.408 56.841 569.838 o
3 6 8 110.607 107.326 47.078 539.839 o
3 7 1 20620.400 19557.400 274.071 2.581 o
3 7 3 15260.700 14823.800 404.114 3.128 o
3 7 7 11702.300 10881.000 285.324 5.580 o
3 7 9 5164.760 4920.860 170.104 19.161 o
3 8 0 4880.440 4725.710 195.100 17.678 o
3 8 2 3524.350 3534.490 123.655 35.496 o
3 8 4 3828.410 3841.050 209.990 20.202 o
3 8 6 5871.370 5433.350 200.035 15.081 o
3 8 8 1898.130 1874.650 114.974 59.118 o
3 9 1 8714.420 8350.880 334.639 6.502 o
3 9 3 9262.100 8879.780 200.201 8.846 o
3 9 7 3688.480 3514.460 165.694 26.372 o
3 9 9 3049.130 2999.270 146.219 32.723 o
3 10 0 12715.700 13454.700 371.015 3.963 o
3 10 2 13561.400 13879.400 710.645 1.848 o
3 10 4 9120.990 8782.940 336.151 6.106 o
3 10 6 7889.280 7501.710 253.698 9.213 o
3 10 8 5887.160 5445.040 208.474 14.550 o
3 11 1 351.899 413.444 46.581 391.592 o
3 11 3 1071.600 1088.930 65.852 142.512 o
3 11 7 217.217 291.509 71.513 212.557 o
3 12 0 11068.500 10033.000 688.228 2.149 o
3 12 2 16114.300 15106.700 261.269 3.787 o
3 12 4 12364.200 12105.500 424.201 3.651 o
3 12 6 8543.130 7970.360 282.893 7.765 o
3 13 1 756.692 692.973 75.679 147.988 o
3 13 3 1823.760 1800.210 91.910 79.294 o
3 13 7 719.135 712.896 102.055 101.126 o
3 14 0 10867.500 10141.900 343.561 5.168 o
3 14 2 8327.900 7645.320 211.447 10.006 o
3 14 4 5028.310 4867.390 154.158 20.615 o
3 14 6 5548.970 4992.320 232.995 13.339 o
3 15 1 7291.640 7048.210 235.840 10.229 o
3 15 3 3828.850 3750.760 138.581 29.801 o
3 15 5 4718.430 4985.450 216.023 15.921 o
3 16 0 757.207 785.424 91.108 117.343 o
3 16 2 1997.800 1935.350 114.960 58.206 o
3 16 4 1317.310 1289.620 89.481 89.098 o
3 17 1 8160.320 8100.830 268.586 8.286 o
3 17 3 7383.620 7462.980 266.673 9.023 o
3 18 0 305.622 425.524 79.356 176.023 o
3 18 2 23.941 68.895 70.591 243.311 o
3 19 1 6231.630 6661.690 248.870 10.919 o
4 0 2 13836.400 14136.500 314.330 3.975 o
4 1 1 2554.780 2761.180 81.100 61.421 o
4 1 3 493.912 499.944 66.440 201.813 o
4 1 5 965.004 949.399 54.379 190.278 o
4 2 0 18871.700 19331.300 403.649 2.374 o
4 2 2 10338.100 10201.500 271.930 6.381 o
4 2 6 6361.920 6195.860 148.105 16.509 o
4 3 1 10202.300 10616.600 220.046 7.268 o
4 3 3 9501.190 9524.840 294.189 6.512 o
4 3 7 4385.690 4447.840 127.035 26.917 o
4 4 0 7294.580 8055.220 656.620 2.597 o
4 4 2 1901.950 2075.070 62.070 95.952 o
4 4 6 1266.240 1294.800 83.130 106.972 o
4 4 8 2405.430 2494.090 95.444 59.113 o
4 5 1 19044.000 19216.700 489.723 2.046 o
4 5 3 16594.000 15927.900 423.528 2.733 o
4 5 7 7438.530 7049.410 193.171 11.873 o
4 6 0 144.322 210.254 27.211 1026.880 o
4 6 2 1284.630 1122.520 105.422 80.478 o
4 6 4 116.620 141.512 68.883 221.727 o
4 6 6 5.587 46.871 34.039 524.965 o
4 6 8 0.339 22.910 48.989 714.242 o
4 7 1 15416.700 14179.900 380.869 3.250 o
4 7 3 10595.100 10214.400 342.500 5.329 o
4 7 7 8236.220 7878.280 232.173 9.222 o
4 8 0 3961.640 3904.520 112.666 33.575 o
4 8 2 5829.610 5847.540 245.860 11.761 o
4 8 4 2384.320 2278.420 171.548 30.607 o
4 8 6 4556.890 4236.450 180.708 19.840 o
4 8 8 942.048 1046.820 88.647 108.867 o
4 9 1 5604.280 5594.750 147.791 19.194 o
4 9 3 5334.140 5179.480 250.618 12.907 o
4 9 7 3186.680 3398.020 163.533 28.452 o
4 10 0 9349.340 9825.980 459.468 4.068 o
4 10 2 12874.700 13221.400 255.598 5.038 o
4 10 6 7071.590 6972.750 252.170 9.912 o
4 10 8 4057.710 4024.430 178.935 22.505 o
4 11 1 82.125 109.175 38.712 569.903 o
4 11 7 303.994 311.212 76.809 184.696 o
4 12 0 7131.400 7433.390 291.587 8.466 o
4 12 2 12236.900 12168.100 338.074 4.559 o
4 12 6 8360.540 7605.680 281.899 7.985 o
4 13 3 1993.420 1791.680 191.301 27.863 o
4 14 0 6387.300 6408.550 287.835 9.387 o
4 14 2 5688.370 5521.290 373.332 7.062 o
4 15 1 5419.190 5094.320 342.954 8.275 o
4 15 3 3657.990 3831.620 214.369 18.701 o
4 16 0 447.184 339.159 119.424 83.897 o
4 16 2 1233.790 1210.130 136.052 56.820 o
4 17 1 5624.900 6386.540 408.219 6.262 o
4 17 3 5950.430 6266.540 399.632 6.305 o
5 0 0 12870.600 12396.500 302.560 4.711 o
5 0 2 13975.100 14339.600 344.496 3.875 o
5 1 1 1216.400 1444.590 68.309 128.412 o
5 1 5 721.392 753.315 51.389 252.225 o
5 2 0 5738.380 6229.250 189.767 15.250 o
5 2 2 11453.400 12355.200 390.836 4.264 o
5 2 6 7125.220 5693.350 135.239 16.992 o
5 3 1 5286.870 5352.220 230.479 14.212 o
5 3 3 6525.240 6874.920 262.453 10.348 o
5 4 0 2241.210 2445.940 85.218 68.105 o
5 4 2 4204.480 4547.670 107.454 31.365 o
5 4 6 1711.040 1665.580 92.911 81.522 o
5 5 1 11029.800 10809.700 229.115 6.809 o
5 5 3 11684.300 11206.600 364.235 4.553 o
5 6 0 17.125 3.413 38.069 884.660 o
5 6 2 7.571 89.897 82.398 288.479 o
5 6 4 96.646 73.619 74.957 245.587 o
5 6 6 33.339 41.846 58.793 405.940 o
5 7 1 10291.700 9107.050 319.030 5.976 o
5 7 3 8889.900 8549.280 332.943 6.304 o
5 8 0 3615.290 3708.090 198.568 20.911 o
5 8 2 1748.570 1588.430 145.516 46.240 o
5 8 6 2799.210 2695.210 150.450 34.846 o
5 10 0 8718.430 9261.000 344.468 6.011 o
5 10 6 4407.660 4620.080 208.951 17.538 o
5 12 0 7785.390 7985.700 362.732 6.193 o
5 13 1 546.066 571.146 119.931 79.119 o
5 14 0 6706.850 7303.910 374.483 6.407 o
6 0 0 11736.100 11822.800 318.771 4.963 o
6 0 2 10883.800 9744.600 292.030 5.819 o
6 1 1 1111.300 1246.840 70.994 129.910 o
6 2 0 5780.800 6337.900 147.800 18.018 o
6 2 2 8328.020 9096.110 433.733 4.597 o
6 3 1 5182.320 6150.400 330.032 8.450 o
6 3 3 4716.790 4553.140 225.945 15.206 o
6 4 0 1686.730 1928.560 86.283 83.324 o
6 4 2 2658.070 2931.260 185.596 25.825 o
6 5 1 9550.890 9730.850 196.086 8.473 o
6 5 3 7881.250 7202.120 304.232 7.624 o
6 6 0 168.648 227.734 64.349 276.722 o
;
_olex2_submission_special_instructions 'No special instructions were received'
_oxdiff_exptl_absorpt_empirical_details
;
Empirical correction (ABSPACK) includes:
- Absorption correction using spherical harmonics
- Frame scaling
;
_oxdiff_exptl_absorpt_empirical_full_max 2.923
_oxdiff_exptl_absorpt_empirical_full_min 0.400
loop_
_space_group_symop_id
_space_group_symop_operation_xyz
1 x,y,z
2 -x,-y,z
3 -x,y,z
4 x,-y,z
5 x,y+1/2,z+1/2
6 -x,-y+1/2,z+1/2
7 -x,y+1/2,z+1/2
8 x,-y+1/2,z+1/2
loop_
_atom_site_label
_atom_site_type_symbol
_atom_site_fract_x
_atom_site_fract_y
_atom_site_fract_z
_atom_site_U_iso_or_equiv
_atom_site_adp_type
_atom_site_occupancy
_atom_site_site_symmetry_order
_atom_site_refinement_flags_posn
_atom_site_refinement_flags_adp
_atom_site_refinement_flags_occupancy
Eu1 Eu 1.0 0.707216(15) 0.636072(16) 0.00773(10) Uani 1.000000 2 S T P
O1 O 1.0 0.5708(8) 0.4628(7) 0.013(2) Uani 1.000000 2 S TU P
O2 O 1.0 0.5766(10) 0.8017(7) 0.023(3) Uani 1.000000 2 S TU P
O3 O 0.5 0.6805(4) 0.5807(6) 0.0133(11) Uani 1.000000 2 S TU P
O4 O 0.7358(6) 0.7498(8) 0.3812(9) 0.0186(6) Uani 1.000000 1 . U .
O5 O 1.0 0.8660(3) 0.6409(10) 0.0515(19) Uani 1.000000 2 DS TU P
H5a H 1.0 0.901(7) 0.723(10) 0.077(3) Uiso 1.000000 2 DGRS T P
H5b H 1.0 0.899(7) 0.555(10) 0.077(3) Uiso 1.000000 2 DGRS T P
C1 C 1.0 0.5 0.5388(13) 0.012(4) Uani 1.000000 4 S TU P
C2 C 1.0 0.5 0.7344(13) 0.019(5) Uani 1.000000 4 S TU P
C3 C 0.5 0.7247(5) 0.4410(9) 0.0125(13) Uani 1.000000 2 S TU P
loop_
_atom_site_aniso_label
_atom_site_aniso_U_11
_atom_site_aniso_U_22
_atom_site_aniso_U_33
_atom_site_aniso_U_12
_atom_site_aniso_U_13
_atom_site_aniso_U_23
Eu1 0.00658(14) 0.00889(13) 0.00772(14) -0.000000 -0.000000 0.0005(4)
O1 0.024(6) 0.010(4) 0.006(3) -0.000000 -0.000000 -0.0047(14)
O2 0.046(9) 0.010(4) 0.015(4) -0.000000 -0.000000 0.0000(15)
O3 0.010(2) 0.015(2) 0.015(2) -0.000000 -0.000000 0.0029(15)
O4 0.0096(13) 0.0297(15) 0.0165(15) -0.0019(16) -0.0021(14) 0.0114(13)
O5 0.133(6) 0.0096(19) 0.012(2) -0.000000 -0.000000 0.000(4)
C1 0.009(10) 0.013(4) 0.014(3) -0.000000 -0.000000 0.000000
C2 0.032(14) 0.012(4) 0.013(3) -0.000000 -0.000000 0.000000
C3 0.010(2) 0.014(3) 0.014(3) -0.000000 -0.000000 0.0024(18)
loop_
_atom_type_symbol
_atom_type_scat_dispersion_real
_atom_type_scat_dispersion_imag
_atom_type_scat_Cromer_Mann_a1
_atom_type_scat_Cromer_Mann_a2
_atom_type_scat_Cromer_Mann_a3
_atom_type_scat_Cromer_Mann_a4
_atom_type_scat_Cromer_Mann_b1
_atom_type_scat_Cromer_Mann_b2
_atom_type_scat_Cromer_Mann_b3
_atom_type_scat_Cromer_Mann_b4
_atom_type_scat_Cromer_Mann_c
_atom_type_scat_source
_atom_type_scat_dispersion_source
C 0.00347 0.00161 2.31000 1.02000 1.58860 0.86500 20.84390 10.20750 0.56870
51.65120 0.21560 'International Tables Volume C Table 6.1.1.4 (pp. 500-502)'
'Henke, Gullikson and Davis, At. Data and Nucl. Data Tables, 1993, 54, 2'
Eu -0.00847 3.77655 24.62740 19.08860 13.76030 2.92270 2.38790 0.19420 13.75460
123.17400 2.57450 'International Tables Volume C Table 6.1.1.4 (pp. 500-502)'
'Henke, Gullikson and Davis, At. Data and Nucl. Data Tables, 1993, 54, 2'
H 0.00000 0.00000 0.49300 0.32291 0.14019 0.04081 10.51090 26.12570 3.14236
57.79970 0.00304 'International Tables Volume C Table 6.1.1.4 (pp. 500-502)'
'Henke, Gullikson and Davis, At. Data and Nucl. Data Tables, 1993, 54, 2'
O 0.01158 0.00611 3.04850 2.28680 1.54630 0.86700 13.27710 5.70110 0.32390
32.90890 0.25080 'International Tables Volume C Table 6.1.1.4 (pp. 500-502)'
'Henke, Gullikson and Davis, At. Data and Nucl. Data Tables, 1993, 54, 2'
loop_
_diffrn_refln_index_h
_diffrn_refln_index_k
_diffrn_refln_index_l
_diffrn_refln_intensity_net
_diffrn_refln_intensity_u
2 0 0 9999 146.37
5 0 0 1751.14 42.74
6 0 0 1670.1 45.03
-6 2 0 936.89 28.05
-5 2 0 926.33 25.8
-2 -2 0 1995.82 39.03
-1 -2 0 1655.57 30.49
2 2 0 1973.69 39.19
2 -2 0 1983.36 32.75
3 -2 0 1735.42 33.1
4 2 0 2730.76 57.02
5 -2 0 878.78 25.42
5 2 0 813.77 29.25
6 -2 0 854.1 28
6 2 0 889.51 33.31
-6 4 0 278.84 15.63
-5 4 0 373.11 16.53
-4 4 0 1213.6 29.33
-3 4 0 897.27 21.64
-3 -4 0 824.18 26.72
-2 -4 0 332.17 14.38
-2 4 0 335.7 10.89
-1 -4 0 648.4 18.2
0 4 0 2918.57 48.93
1 -4 0 642.14 15.27
1 -4 0 638.94 13.43
3 -4 0 804.01 16.64
4 4 0 1028.09 32.51
5 -4 0 325.4 12.69
5 4 0 348.88 19.87
6 4 0 261.84 19.47
-6 6 0 32.17 9.09
-5 6 0 1.52 7.13
-4 6 0 34.73 7.33
-4 -6 0 29.46 8.39
-3 6 0 45.18 6.52
-3 -6 0 30.45 6.55
-2 -6 0 138.42 10.42
-1 -6 0 68.95 6.89
-1 6 0 68.88 6.21
0 6 0 326.98 13.11
1 -6 0 61.21 4.89
1 -6 0 74.5 6.69
1 6 0 66.01 7.25
2 -6 0 138.6 5.65
2 -6 0 117 6.85
3 6 0 40.07 7.62
4 -6 0 23.29 7.16
4 6 0 29.17 8.07
5 6 0 -0.71 8.19
-4 -8 0 532.61 28.36
-4 -8 0 604.62 27.68
-3 -8 0 667.56 27.56
-2 -8 0 2292.97 52.79
-1 8 0 1093.04 28.57
0 -8 0 1010.38 26.61
0 8 0 1013.69 28.23
1 8 0 1129.24 32.22
2 8 0 2114.72 50.98
2 -8 0 2155.16 42.46
4 8 0 518.39 25.97
4 -8 0 546.47 26.93
5 8 0 523.81 28.05
-4 -10 0 1452.31 47.13
-3 -10 0 1900.63 52.41
-2 -10 0 3355.39 72.18
-1 10 0 2734.72 57.92
0 10 0 2278.64 51.67
0 -10 0 2198.97 48.11
1 -10 0 2711.03 52.29
1 10 0 2703.72 61.27
2 -10 0 3265.97 56.35
2 -10 0 3255.9 62.34
2 10 0 3310.39 72.62
4 10 0 1322.5 45.41
5 -10 0 1308.22 48.66
-4 -12 0 1050.05 41.19
-3 -12 0 1540.52 48.45
-1 -12 0 2275.14 54.59
-1 12 0 2317.63 55.74
0 12 0 1703.46 46.9
0 -12 0 1713.71 42.91
1 -12 0 2240.91 48.54
1 12 0 2281.35 58.02
2 -12 0 2270.52 44.82
2 -12 0 2272.07 51.85
2 12 0 2269.78 60.39
3 -12 0 1346.08 34.42
5 -12 0 1128.07 51.24
-4 -14 0 905.28 40.66
-3 -14 0 1550.54 50.39
-1 -14 0 2482.99 60.77
-1 14 0 2528.3 63.79
0 -14 0 1853.19 47.51
0 14 0 1918.75 54.36
1 14 0 2472.81 65.82
1 -14 0 2562.26 61.06
1 -14 0 2524.71 55.03
2 14 0 2083.06 60.59
2 -14 0 2069.65 44.57
2 -14 0 2042.01 52.09
3 -14 0 1353.29 37.39
3 14 0 1441.31 50.75
5 -14 0 1031.76 52.9
-4 -16 0 47.91 16.87
-2 -16 0 176.52 17.41
-1 -16 0 147.27 14.82
-1 16 0 127.86 16.29
0 -16 0 65.97 9.83
0 16 0 47.64 12.42
1 16 0 137.26 17.12
1 -16 0 148.11 12.68
1 -16 0 145.48 15.8
2 16 0 202.65 19.93
2 -16 0 206.44 17.45
2 -16 0 208.84 13.27
3 -16 0 110.95 12.87
-2 -18 0 7.89 8.28
-1 18 0 73.74 14.99
-1 -18 0 70.18 11.93
0 -18 0 77.74 11.18
0 18 0 63.65 15.07
1 -18 0 59.49 13.68
1 -18 0 66.27 10.43
2 -18 0 7.39 9.94
2 -18 0 1.92 5.73
3 -18 0 60.11 11.21
-1 -20 0 373.65 25.64
0 -20 0 260.24 20.01
1 -20 0 408.4 25.61
1 -20 0 445.49 24.29
2 -20 0 165.96 17.23
-6 1 -1 173.95 13.35
-6 1 1 184.15 11.82
-3 -1 -1 399.22 15.32
-2 -1 -1 911.8 21.84
-2 1 -1 916.1 18.65
-1 1 -1 703.55 19.28
-1 -1 -1 687.47 16.32
-1 1 -1 691.6 13.29
2 1 -1 854.15 21.77
2 1 1 900.45 21.73
2 -1 1 916.43 18.83
3 1 -1 370.56 15.12
3 1 1 396.28 15.33
3 -1 -1 398.79 14.45
3 -1 1 407.71 13.41
4 -1 1 400.9 15.59
4 -1 -1 397.25 16.2
4 1 -1 378.88 17.29
4 1 1 386.32 17.32
5 1 1 198.91 14.24
5 -1 1 209.16 13.18
6 -1 1 157 13.43
6 1 -1 146.11 14.18
6 -1 -1 163.25 13.83
6 1 1 195.24 15.79
-6 3 -1 847.15 28.7
-6 3 1 907.03 25.87
-5 3 -1 788.61 25.47
-5 3 1 814.46 22.78
-4 3 -1 1533.96 35.38
-4 3 1 1575.67 31.82
-4 -3 -1 1536.33 40.44
-3 3 1 1271.21 24.66
-3 3 -1 1261.4 28.42
-3 -3 -1 1195.98 32.58
-2 -3 1 2664.99 54.92
-2 -3 -1 2638.82 51.17
-2 3 1 2668.49 41.33
-2 3 -1 2678.56 46.35
-1 -3 -1 1240.7 27.52
-1 -3 1 1257.18 32.51
0 3 1 3222.56 54.3
0 -3 1 3048.81 59.27
0 3 -1 3176.23 49.85
1 3 -1 1229.78 26.73
1 -3 1 1218.1 24.19
1 -3 -1 1286.62 20.36
2 3 1 2551.03 50.27
2 -3 1 2644.71 53.11
3 3 1 1154.65 31.55
3 3 -1 1189.28 32.03
3 -3 1 1167.93 21.92
4 -3 1 1459.52 29.59
4 3 -1 1454.53 39.29
4 3 1 1494.03 39.85
4 -3 -1 1458.65 32.36
5 -3 1 679.1 19.81
5 3 1 744.11 28.83
6 -3 -1 778.51 26.25
6 3 1 813.16 33.77
6 3 -1 782.06 31.97
-6 5 1 1395.77 34.79
-6 5 -1 1454.71 39.72
-5 5 -1 1598.91 39.95
-5 5 1 1535.82 35.14
-4 -5 -1 2785.24 63.11
-4 5 1 2789.51 50.5
-4 5 -1 2813.15 55.82
-3 5 1 2821.36 48.11
-3 5 -1 2827.43 52.88
-3 -5 -1 2796.01 60.2
-3 -5 1 2798.65 63.91
-2 -5 1 5341 100.77
-2 -5 -1 5391.71 93.67
-2 5 -1 5407.51 86.81
-1 5 -1 4849.25 72.47
-1 -5 -1 4801.17 81.98
-1 -5 1 4851.23 80.49
0 5 1 8104.71 127.51
0 5 -1 8182.16 122.46
1 5 -1 4814.77 81.66
1 -5 1 4966.6 78.93
1 -5 -1 4902.19 79.12
1 5 1 4829.96 83.86
2 -5 1 5246.13 83.13
3 5 1 2765.24 60.28
3 5 -1 2797.07 59.72
3 -5 1 2886.78 62.79
4 5 1 2650.11 61.45
4 -5 -1 2596.84 46.88
5 5 1 1471.71 45.29
5 5 -1 1454.84 44.32
6 5 1 1367.01 46.81
-6 7 -1 1118.21 35.79
-5 7 -1 1393.5 38.8
-4 -7 -1 2176.99 56.89
-4 7 -1 2137.93 48.6
-3 -7 -1 2818.85 62.72
-3 7 -1 2719.58 54.7
-3 -7 1 2805.56 71
-2 -7 1 4445.86 82.29
-2 -7 -1 4340.51 83.24
-1 7 -1 5273.52 83.44
0 7 1 6433.35 109.49
0 -7 1 6624.37 103.37
1 -7 -1 5198.95 86.28
1 -7 1 5331.44 87.8
1 7 1 5214.48 93.05
1 -7 1 5160.73 80.07
1 7 -1 5253.97 90.83
2 -7 -1 4365.52 71.74
2 -7 1 4209.39 72.51
2 -7 -1 4229.34 67.69
2 7 -1 4195.94 80.69
3 -7 1 2739.09 66.99
3 7 1 2708.95 62.85
3 -7 -1 2772.88 50.27
4 -7 -1 1917.12 35.53
4 7 1 2020.86 54.28
5 7 1 1279.72 44.83
5 7 -1 1344.21 44.48
-5 -9 -1 635.1 36.72
-4 -9 -1 807.55 34.05
-4 -9 1 813.45 40
-3 -9 -1 1276.35 39.82
-3 -9 1 1167.39 46.78
-2 -9 1 1226.27 36.62
-2 -9 -1 1227.36 37.26
-1 9 -1 1773.05 38.64
0 -9 1 1378.05 32.85
0 -9 -1 1379.56 35.15
0 9 1 1352.92 38
0 9 -1 1367.67 34.53
1 -9 -1 1725.38 39.1
1 -9 1 1743.65 35.08
1 -9 1 1701.61 40.74
1 9 1 1753.72 45.69
2 -9 -1 1180.9 28.84
2 9 1 1182.25 37.68
2 -9 1 1205.05 31.53
2 -9 -1 1219.31 28.49
3 -9 -1 1180.29 27
4 9 -1 743.41 31.93
4 9 1 775.98 33.31
4 -9 1 798.3 36.58
5 -9 -1 670.67 31.66
-4 -11 -1 14.87 8.88
-4 -11 1 9.16 12.17
-3 -11 1 64.55 10.35
-3 -11 -1 53.15 10.09
-2 -11 -1 10.81 6.72
-1 11 1 39.02 8.84
-1 11 -1 42.39 7.55
-1 -11 1 37.38 7.12
0 11 -1 7.75 5.69
0 11 1 18.35 7.05
0 -11 1 15.34 4.7
1 -11 1 49.71 9.2
1 11 1 31.38 8.54
1 -11 1 41.35 5.66
1 -11 -1 41.76 7.06
1 11 -1 44.46 8.45
2 -11 -1 10.23 4.89
2 11 1 -2.24 7.82
2 11 -1 13.44 6.96
2 -11 -1 14.38 6.81
2 -11 1 19.13 7.47
3 -11 -1 46.71 6.56
3 -11 1 51.8 8.3
4 -11 1 16.63 10.4
4 11 1 26.03 10.33
4 11 -1 30.06 10.34
5 -11 -1 50.49 12.08
-4 -13 -1 129.05 16.13
-3 -13 -1 125.52 14.53
-1 -13 1 123.71 11.66
-1 13 -1 128.18 12.77
-1 13 1 114.29 13.51
-1 -13 -1 108.13 11.94
0 13 -1 185.68 14.97
0 13 1 202.97 17.05
0 -13 1 203.38 13.57
0 -13 -1 181.57 13.91
1 -13 1 103.57 12.32
1 13 -1 128.68 13.52
1 -13 1 105.75 9.14
2 -13 1 169.02 13.74
2 13 -1 164.91 16.08
2 -13 -1 151.7 13.19
2 13 1 171.43 17.07
3 -13 1 100.45 10.97
3 -13 -1 105.45 9.36
3 13 -1 96.58 14.19
5 -13 1 81.34 17.08
5 -13 -1 89.6 17.43
-4 -15 1 717.46 48.3
-4 -15 -1 729.09 38.03
-3 -15 -1 1089.85 43.73
-2 -15 1 1081.58 39.19
-1 -15 1 1268.1 41.05
-1 -15 -1 1360.14 43.69
-1 15 -1 1355.56 43.64
0 -15 -1 1232.61 39.3
0 -15 1 1209.35 36.99
0 15 1 1275.94 46.12
0 15 -1 1198.05 41.76
1 -15 1 1286.87 42.24
1 -15 -1 1377.36 39.53
1 15 -1 1358.22 46.3
1 15 1 1320.3 48.38
1 -15 1 1328.56 36.3
2 -15 1 1036.17 36.16
2 15 -1 1070.49 42.51
2 -15 -1 1024.41 34.85
2 15 1 1040.53 43.64
2 -15 -1 1120.27 32.83
3 -15 -1 975.99 29.88
3 -15 -1 1012.97 27.75
3 -15 1 1008.34 33.74
-2 -17 -1 1075.04 43.16
-2 -17 1 1083.15 42.18
-1 -17 1 1486.36 47.06
-1 17 -1 1544.92 51.31
-1 -17 -1 1389.6 47.26
0 17 1 1268.88 49.45
0 17 -1 1276.56 47.08
0 -17 1 1229.97 39.81
0 -17 -1 1288.63 42.47
1 17 -1 1492.16 52.64
1 -17 1 1530.04 48.92
1 -17 -1 1545.43 45.08
1 17 1 1530.53 55.46
2 -17 1 1090.56 38.55
2 -17 -1 1097.86 37.43
2 -17 -1 1088.99 34.96
3 -17 1 1146.72 38.02
3 -17 -1 1132.17 34.23
3 -17 -1 1080.41 31.02
4 -17 1 888.16 56.77
-2 -19 -1 870.33 40.75
-1 -19 -1 1149.02 45.14
-1 19 -1 1224.44 49.91
0 -19 -1 1026.65 39.55
0 19 -1 1012.54 44.79
1 -19 -1 1218.93 41.39
1 -19 1 1228.21 44.51
1 -19 -1 1147.79 41.65
2 -19 1 869.88 35.51
2 -19 -1 845.07 34.31
2 -19 -1 880.91 33.06
3 -19 1 947.58 35.4
0 -21 -1 339.61 24.75
1 -21 -1 348.94 24.32
1 -21 -1 379.05 24.22
-3 0 -2 3123.16 60.69
-3 0 -2 3035.11 55.84
-2 0 -2 7783.38 118.91
-1 0 -2 6712.48 103.84
0 0 -2 5208.92 76.53
2 0 2 8034.93 123.24
3 0 -2 3041.39 57.76
3 0 2 3107.86 57.5
4 0 2 2032.35 45.19
4 0 -2 2014.01 46.51
5 0 2 2009.23 48.27
5 0 -2 1959.2 48.57
6 0 2 1400.14 41.96
-6 2 2 1334.05 30.77
-5 2 2 1761.64 34.67
-5 2 -2 1648.98 40.94
-4 2 -2 1477.04 34.93
-4 -2 -2 1496.58 39.19
-3 -2 -2 2532.97 52.18
-3 2 -2 2462.31 42.81
-3 2 -2 2623.66 48.26
-2 2 -2 6063.37 90.75
-2 2 -2 6136.78 107.37
-2 -2 -2 6088.33 99.53
-1 2 -2 5688.26 102.38
-1 -2 -2 5732.49 93.74
-1 2 -2 5761.98 88.02
0 2 -2 3506.78 71.04
0 2 -2 3666.29 58.69
2 2 2 6200.53 101.93
2 2 -2 6129.08 106.82
3 2 2 2583.26 54.33
3 2 -2 2649.47 54.89
4 2 -2 1489.58 38.77
4 2 2 1452.97 38.73
4 -2 -2 1499.26 35.03
5 2 -2 1601.71 45
5 -2 -2 1634.72 40.92
5 2 2 1652.6 45.79
6 2 2 1210.61 42.59
-6 4 -2 452.02 22.03
-5 4 -2 704.74 25.46
-5 4 2 648.09 17.85
-4 -4 -2 292.13 17.82
-4 4 2 297.06 10.17
-4 4 -2 315.25 15.96
-3 -4 -2 816.18 27.88
-3 4 -2 865.89 24.69
-2 -4 -2 1579.15 38.34
-1 -4 -2 1483.1 35.29
-1 -4 2 1523.09 44.32
0 -4 2 127.69 12.68
0 -4 2 118.61 7.7
1 4 -2 1472.88 32.78
1 -4 2 1499.55 30.98
2 4 2 1650.51 40.54
3 4 -2 800.46 27
3 4 2 827.26 28.33
4 4 -2 308.92 18.09
4 4 2 295.63 18.18
5 4 -2 634.78 28.48
5 4 2 623.34 28.68
5 -4 -2 624.47 21.66
6 4 2 418.85 26.52
-5 6 -2 1.02 8.39
-5 -6 -2 -3.8 7.66
-4 6 -2 170.15 13.36
-4 -6 -2 186.68 15.24
-3 6 -2 30.93 7.4
-3 -6 -2 41.19 7.78
-2 -6 2 21.31 8.85
-2 6 -2 48.19 7.07
-1 6 -2 33.91 3.86
-1 -6 2 33.55 9.56
-1 -6 -2 35.76 6.67
0 6 -2 1253.6 28.67
0 6 2 1312.46 34.63
1 6 2 35.79 7.39
1 6 -2 33.9 5.88
1 -6 2 29.48 5.63
1 -6 -2 30.84 5.75
2 -6 2 29.58 8.23
2 6 -2 21.16 5.81
2 -6 2 29.28 5.53
3 6 2 36.87 8.6
3 -6 2 35.9 8.95
4 6 2 158.76 14.91
4 6 -2 161.24 14.63
5 -6 -2 4.75 4.47
5 6 2 10.31 9.45
-5 8 -2 259.14 18.41
-5 -8 -2 246.54 20.58
-4 -8 -2 864.62 34.63
-4 8 -2 829 29.62
-3 -8 -2 506.76 24.29
-3 8 -2 483.08 21.34
-3 -8 2 528.82 31.45
-2 -8 2 385.17 26.42
-1 -8 2 301.3 22.43
0 -8 2 1445.35 49.55
0 8 2 1537.79 41.71
0 8 -2 1547.45 35.8
1 8 -2 311.62 15.65
1 -8 2 317.66 15.21
1 8 2 317.62 18.1
1 -8 -2 312.58 15.65
2 -8 2 359.8 16.17
2 -8 -2 372.86 11.59
2 -8 -2 385.06 17
2 8 -2 373.77 18.76
2 -8 2 407.81 25.41
3 -8 2 459.46 27.52
3 -8 -2 465.88 18.86
3 8 2 498.82 25.25
4 8 2 834.58 35.09
4 -8 -2 820.93 26.03
5 8 2 221.81 20.32
5 -8 -2 221.47 10.9
5 -8 -2 230.86 12.98
-5 -10 -2 913.57 41.02
-4 -10 2 1878.07 67.99
-4 -10 -2 1904.1 56.61
-3 -10 -2 1916.84 54.48
-3 -10 2 2058 70.68
-2 -10 2 1717.11 61.29
-2 10 -2 1619.91 33.67
-1 10 -2 2369.59 48.63
0 -10 -2 3703.08 74.66
0 10 2 3717.38 79.49
1 -10 -2 2266.77 51.29
1 -10 2 2319.87 51.88
1 10 -2 2297.27 54
1 10 2 2297.76 58.83
2 -10 -2 1733.1 36.3
2 -10 2 1685.03 58.91
2 -10 -2 1673.85 41.09
2 10 -2 1663.06 46.88
2 -10 2 1699.22 41.8
2 10 2 1656.73 50.31
3 -10 2 1858.19 62.69
3 -10 -2 1855.72 43.05
4 -10 2 1931.46 64.04
4 -10 -2 1803.08 40.95
4 10 2 1812.34 57.28
5 -10 -2 708.35 18.89
-5 -12 -2 1040.13 45.55
-4 -12 2 1684.43 70.43
-4 -12 -2 1710.2 56.43
-3 -12 2 2176.33 77.97
-3 -12 -2 2265.03 62.4
-2 -12 2 1868.94 69.68
-2 12 -2 1975.22 43.64
-2 -12 -2 1910.53 54.86
-1 12 -2 3174.21 64.74
0 12 2 3597.2 82.22
0 -12 -2 3658.52 75.85
0 12 -2 3536.47 73.39
1 -12 -2 3203.83 66.92
1 -12 2 3103.14 67.57
1 12 2 3212.4 77.48
2 -12 2 1837.67 66.84
2 -12 -2 1876.4 45.81
2 -12 -2 1933.02 43.67
2 12 2 1976.4 58.19
2 -12 2 1839.82 47.17
3 -12 -2 2263.37 49.45
3 -12 2 2089.86 51.01
3 -12 2 2206.25 74.22
3 12 -2 2231.06 61.42
4 -12 -2 1609.15 36.8
4 -12 2 1744.34 64.87
-4 -14 -2 750.57 38.36
-4 -14 2 724.97 47.67
-3 -14 -2 1166.14 44.72
-3 -14 2 1106.32 58.12
-2 -14 2 854.22 48.21
-2 14 -2 734.75 27.97
-1 14 -2 1558.98 43.65
-1 -14 -2 1473.41 46.78
0 14 -2 1500.93 44.4
0 14 2 1407.55 49.18
1 -14 2 1518.62 44.9
1 14 -2 1510.93 47.3
1 -14 -2 1520.53 43.35
1 14 2 1570.8 53.07
2 -14 2 799.05 45.77
2 -14 -2 767.68 27.48
2 14 -2 745.86 33.23
2 -14 -2 763.73 27.92
2 14 2 734.73 36.6
2 -14 2 769.37 30.07
3 -14 -2 986.12 26.16
3 -14 2 1079.22 35.11
4 -14 2 830.57 48.11
-4 -16 2 178.05 27.37
-3 -16 2 276.61 31.75
-3 -16 -2 271.36 23.11
-2 -16 2 110.32 21.51
-1 -16 -2 270.77 20.81
0 16 -2 251.99 19.58
0 16 2 260.46 23.51
0 -16 -2 261.95 19.08
0 -16 2 278.01 20.96
1 16 -2 297.33 22.28
1 16 2 306.33 25.56
1 -16 2 298.01 20.99
2 -16 2 84.94 19.95
2 -16 2 111.37 13.59
2 -16 -2 96.01 12.98
3 -16 -2 253.13 14.32
3 -16 2 269.21 18.69
4 -16 2 159.37 26.36
-2 -18 2 56.39 17.48
-2 -18 -2 41.9 12.23
-1 -18 -2 28.08 9.1
-1 18 -2 23.84 11.47
0 -18 -2 16.54 8.58
0 18 2 30.11 12.35
0 -18 2 19.22 15.06
0 18 -2 35.25 10.66
0 -18 2 15.49 11.67
1 -18 2 24.57 11.31
1 -18 -2 12.21 8.09
2 -18 2 70.6 13.31
2 -18 2 57.99 19.73
2 -18 -2 50.57 9.62
2 -18 -2 54.43 11.88
3 -18 2 23.18 17.41
3 -18 -2 7.49 5.95
3 -18 2 2.64 9.77
-1 -20 -2 426.58 28.08
0 -20 -2 381.29 25.83
1 -20 -2 472.79 27.48
1 -20 -2 430.95 24.41
2 -20 -2 502.03 26.3
1 -22 -2 551.2 30.85
-5 1 -3 76.73 9.75
-4 -1 -3 99.87 11.57
-4 -1 -3 86.32 9.26
-4 1 -3 76.27 8.77
-4 1 -3 94.23 7.86
-3 1 -3 56.12 9.72
-2 1 3 33.02 2.74
-2 -1 -3 27.06 5.65
-2 1 -3 27.28 5.11
-1 -1 3 13.24 3.65
-1 1 -3 12.68 3.78
-1 -1 -3 9.82 4.86
0 -1 -3 10.5 2.77
0 1 -3 9.25 3.91
3 1 -3 53.22 8.49
4 1 -3 98.31 10.64
4 1 3 72.84 9.68
4 -1 -3 95 10.02
4 -1 -3 93.51 10.11
5 -1 -3 82.89 10.67
5 1 -3 75.76 10.78
6 -1 -3 82.26 11.44
6 1 -3 51.37 11.57
-5 -3 -3 946.88 33.63
-5 3 -3 985.23 29.86
-4 -3 -3 1463.32 41.2
-4 3 -3 1380.89 36.06
-3 3 -3 1693.05 38.59
-2 -3 -3 2163.28 48.86
-2 3 -3 2217.68 59.07
-2 3 -3 2138.54 40.64
-1 3 -3 2409.03 44.64
-1 -3 -3 2341.03 51.27
-1 -3 3 2327.87 43.3
-1 3 -3 2402.73 62.09
0 3 -3 2927.91 71.9
0 3 -3 3229.66 56.49
1 -3 -3 2340.99 35.37
1 -3 3 2375.88 43.58
2 3 3 2314.75 52.12
2 3 -3 2303.87 58.59
3 3 -3 1775.81 43.89
3 3 3 1662.99 44.41
4 3 3 1356.58 41.9
4 3 -3 1455.95 42.03
5 3 -3 932.12 35.66
5 3 3 959.78 36.64
6 3 3 647.67 32.14
6 -3 -3 712.05 27.89
-5 -5 -3 1633.23 51.14
-5 5 -3 1628.61 43.98
-4 -5 -3 2325.82 59.15
-4 5 -3 2288.11 52.58
-3 5 -3 3286.13 64.3
-2 -5 -3 4459.76 85.71
-1 5 -3 5903.73 97.4
-1 -5 -3 5863.08 104.64
0 5 -3 6575.49 127.58
0 -5 3 6439.63 128.05
1 -5 3 5801.57 95.24
2 5 -3 4460.7 82.83
2 5 3 4465.95 87.66
3 5 3 3236.69 72.11
4 5 -3 2364.5 58.86
4 5 3 2263.23 60.18
5 5 -3 1576.44 50.17
5 5 3 1579.29 51.33
6 5 3 1025.52 43.32
-5 -7 -3 1218.54 45.81
-5 7 -3 1286.35 40.77
-4 7 -3 1455.35 41.85
-4 -7 -3 1411.05 46.18
-3 7 -3 1991.33 48.32
-2 -7 -3 2174.59 54.41
-2 7 -3 2146.48 48.53
-2 -7 3 2288.66 69.34
-1 -7 -3 3163.29 68.01
-1 -7 3 3270.57 86
-1 7 -3 3217.09 56.49
0 7 -3 2934.28 56.28
0 -7 3 2881.55 78.51
1 7 -3 3076.41 62.52
1 7 3 3199.49 69.7
1 -7 -3 3045.53 65
1 -7 3 3078.52 59.79
2 -7 3 2172.2 46.54
2 -7 3 2169.9 65.05
2 7 -3 2170.81 51.83
3 7 3 2096.02 57.14
4 7 3 1432.4 48.03
4 7 -3 1491.62 46.69
5 -7 -3 1349.78 35.06
5 7 3 1207.63 47.03
-5 9 -3 655.34 30.9
-5 -9 -3 735.73 36.29
-4 -9 -3 705.31 32.73
-4 9 -3 695.56 29.54
-3 -9 -3 1313.68 43.37
-3 9 -3 1214.47 38.31
-3 -9 3 1311.34 54.94
-2 9 -3 1083.26 23.71
-2 -9 -3 1131.87 38.15
-2 -9 3 1156.25 50.95
-1 9 -3 1958.6 41.35
-1 -9 3 2020.09 70.12
0 9 -3 1477.38 37.2
0 -9 3 1449.43 37.88
0 -9 3 1504.32 57.73
1 -9 3 1886.02 44.76
1 -9 -3 1895.21 48.03
1 9 3 1941.8 53.54
1 9 -3 1935.94 47.14
2 9 -3 1071.98 35.4
2 -9 3 1058.44 31.25
2 -9 -3 1065.85 33.69
2 -9 3 1069.26 46.4
2 -9 -3 1070.56 22.48
3 -9 3 1270.02 51.33
3 -9 -3 1278.14 37.9
3 9 3 1246.74 44.51
4 -9 -3 707.25 27.48
4 9 -3 727.76 33.25
4 9 3 720.86 34.88
5 -9 -3 669.99 25.82
-5 -11 -3 69.35 14.46
-4 -11 -3 62.39 12.28
-3 -11 -3 158.94 16.06
-2 11 -3 34.09 6.18
-2 -11 3 62.88 16
-1 -11 3 176.55 21.92
0 -11 -3 45.82 8.87
0 11 -3 51.5 8.6
0 -11 3 50.4 13.94
0 -11 3 34.9 8.35
1 -11 -3 172.84 13.83
1 -11 3 151.19 13.29
1 11 3 162.74 16.64
1 11 -3 187.99 14.72
2 -11 3 45.21 13.83
2 -11 -3 33.58 7.82
2 11 -3 30.43 8.49
2 -11 3 40.07 9.01
2 -11 -3 45.55 7.12
2 11 3 27.17 9.93
3 11 -3 168.17 16.58
3 -11 3 159.87 20.75
3 -11 3 152.64 13.26
3 11 3 170.26 18.92
3 -11 -3 154.21 13.5
4 -11 -3 50.91 9.3
5 -11 -3 103.81 9.79
-4 -13 -3 252.6 22.7
-3 -13 3 261.21 29.38
-3 -13 -3 264.76 21.16
-2 -13 3 610.9 42.44
-2 13 -3 600.31 22.64
-1 13 -3 416.84 19.53
-1 -13 3 407.77 33.94
0 -13 -3 585.78 27.09
0 -13 3 587.8 39.43
0 -13 3 588.41 26.33
1 -13 -3 385.17 21.43
1 -13 3 352.7 20.18
2 -13 -3 525.72 24.16
2 -13 -3 537.55 20.43
2 -13 3 526.97 24.32
2 -13 3 564.17 39.02
2 13 3 551.73 31.61
3 -13 -3 249.92 16.41
3 -13 3 249.13 16.79
3 -13 3 241.29 26.3
4 -13 -3 295.24 16.77
4 -13 3 256.81 27.42
-4 -15 3 516.07 43.19
-3 -15 -3 535.06 32.01
-3 -15 3 534.75 43.72
-2 -15 3 760.34 49.9
-2 15 -3 795.1 30.2
-1 15 -3 602.55 26.52
-1 -15 3 630.87 44.17
0 15 -3 693.59 30.04
0 -15 3 623.57 43.65
0 -15 -3 702.75 30.94
0 -15 3 700.02 30.86
1 -15 3 616.24 28.37
1 -15 -3 603.01 27.62
1 15 -3 576.13 28.88
1 15 3 573.15 33.4
2 -15 -3 715.67 29.59
2 -15 -3 708.89 25.77
2 15 -3 662.5 33.17
2 -15 3 779.52 48.99
2 -15 3 705.15 30.01
3 -15 -3 577.73 25.19
3 -15 3 523.12 25.57
3 -15 3 539.32 42.08
4 -15 3 565.48 42.62
-3 -17 3 962.04 62.23
-2 -17 -3 1133.64 46.54
-2 -17 3 1328.1 69.91
-1 -17 3 1340.74 69.11
-1 17 -3 1385.41 45.08
-1 -17 -3 1279.06 48.1
0 17 -3 1291.44 45.23
0 -17 3 1328.51 68.3
0 -17 3 1357.92 46.65
1 -17 3 1327.07 45.31
1 17 -3 1356.79 48.72
1 -17 3 1328.46 69.56
2 -17 -3 1224.66 36.82
2 -17 3 1269.51 69.4
2 -17 3 1243.72 42.49
3 -17 3 1075.9 38.79
3 -17 3 1106.36 64.17
4 -17 3 877.81 55.98
-1 -19 -3 1111.72 46.76
0 19 -3 1187.22 46.4
0 -19 3 1323.07 48.45
0 -19 -3 1171.73 45.61
1 -19 3 1302.08 46.62
1 -19 -3 1179.24 44.77
2 -19 -3 1035.15 40.09
1 -21 -3 238.8 20.95
-5 0 -4 1280.62 35.36
-5 0 -4 1111.68 34.13
-4 0 -4 2610.01 70.13
-4 0 -4 2566.79 56.58
-3 0 -4 2680.88 56.79
-2 0 -4 2301.15 52.29
-2 0 4 2447.44 39.5
-1 0 4 4013.03 61.38
-1 0 -4 3847.7 65.52
0 0 -4 7202.8 109.58
4 0 -4 2710.29 66.66
5 0 -4 1379.83 44.16
-5 -2 -4 1088.88 38.46
-5 2 -4 1162.35 34.52
-4 2 -4 2154.73 45.17
-4 2 -4 2288.43 50.2
-3 2 -4 2622.16 52.36
-3 -2 -4 2562.44 58.57
-3 2 -4 2693.88 71.95
-2 2 -4 2350.64 66.06
-2 -2 4 2390.87 43.7
-2 2 -4 2499.87 47.78
-2 2 -4 2320.59 50.39
-2 -2 -4 2321.48 54.32
-1 -2 4 3962.64 64.51
-1 -2 -4 3870.05 77.91
-1 2 -4 3920.55 67.68
0 2 -4 7055.42 109.96
0 -2 -4 6810.48 103.81
0 -2 4 7105.52 106.99
1 -2 -4 3953.49 61.75
2 2 -4 2355.12 62.03
3 2 -4 2563.34 66.38
4 2 -4 2590.37 62.51
5 2 -4 1249.3 42.78
5 -2 -4 1227.43 39.93
6 -2 -4 816.67 33.31
-5 -4 -4 249.75 20.57
-5 4 -4 303.47 18.2
-4 -4 -4 699.44 30.22
-4 4 -4 671.09 25.56
-3 4 -4 593.21 17.37
-3 -4 -4 612.61 26.14
-2 -4 -4 242.18 16.02
-1 4 -4 556.87 19.59
-1 -4 4 539.13 17.71
-1 4 -4 586.44 32.33
-1 -4 -4 528.29 23.76
0 4 -4 1334.27 48.97
1 -4 -4 531.32 11.73
2 4 -4 240.62 19.78
3 4 -4 625.06 26.23
4 4 -4 726.02 31.08
5 4 -4 279.99 21.05
5 -4 -4 291.73 18.35
-5 -6 -4 19 9.12
-4 -6 -4 13.98 8.1
-4 6 -4 14.52 8.65
-3 -6 -4 3.48 6.78
-3 6 -4 -3.58 7.02
-2 -6 -4 158.24 14
-1 -6 -4 48.89 8.9
-1 -6 4 54.23 7.15
-1 6 -4 39.69 8.09
0 6 -4 10.91 8.64
1 -6 4 59.85 7.22
2 6 -4 171.06 12.99
3 6 4 6.88 7.71
4 6 -4 11.48 8.08
4 6 4 21.53 10.48
5 6 4 9.9 10.08
-6 -8 -4 382.51 30.53
-5 -8 -4 422.55 27.8
-4 8 -4 333.04 21.12
-4 -8 -4 317.94 22.91
-3 8 -4 471.54 23.54
-2 -8 -4 1047.6 37.38
-2 8 -4 982.67 23.01
-1 -8 -4 679.11 28.95
-1 -8 4 699.34 39.19
-1 8 -4 688.63 21.15
-1 -8 4 631.61 23.5
0 8 -4 355 16.49
0 -8 4 346.19 27.33
1 8 -4 699.22 25.72
1 -8 -4 670.87 28.18
1 -8 4 630.34 23.28
2 8 -4 1072.89 35.31
2 -8 4 1008.25 30.64
2 -8 -4 1059.54 36.81
3 8 4 523.87 28.64
4 8 -4 367.12 23.56
4 8 4 326.99 24.62
-5 -10 -4 850.78 41.18
-4 -10 -4 868.25 38.71
-4 10 -4 908.79 36.46
-2 -10 4 2216.25 78.61
-2 -10 -4 2176.98 59.99
-1 -10 4 1913.71 71.19
-1 10 -4 1781.19 41.54
0 10 -4 1384.86 37.69
0 -10 4 1353.15 58.62
0 -10 -4 1371.27 43.2
1 10 -4 1754.3 46.65
1 -10 -4 1688.14 48.44
1 -10 4 1698.59 43.24
2 10 -4 2061.43 54.25
2 -10 4 1944.32 48.28
2 -10 -4 2046.5 54.51
2 -10 4 2058.73 72.02
2 -10 -4 1979.71 35.14
3 10 4 1241.08 47.5
3 10 -4 1276.4 43.92
3 -10 -4 1275.28 42.42
4 -10 -4 895.28 35.16
5 -10 -4 889.24 33.52
-4 -12 -4 1207.39 48.15
-2 12 -4 2765.33 54.6
-2 -12 -4 2778.29 72.69
-2 -12 4 2871.16 96.47
-1 -12 4 2747.69 92.68
0 -12 -4 2267.91 60.44
0 12 -4 2335.13 56.21
0 -12 4 2263.53 55.67
0 -12 4 2370.85 83.25
1 -12 4 2489.74 58.93
1 12 -4 2640.25 63.46
1 -12 -4 2578.82 64.12
2 -12 -4 2687.83 49.25
2 -12 4 2626.62 88.05
2 12 -4 2621.86 67.18
2 -12 4 2529.48 60.4
2 -12 -4 2618.73 64.97
3 12 4 1720.22 60.28
3 -12 -4 1713.91 50.22
4 -12 -4 1218.86 40.24
-3 -14 4 652.86 47.99
-3 -14 -4 746.48 37.33
-2 -14 4 1130.88 62.32
-2 14 -4 1225.59 34.63
-1 14 -4 1065.09 33.98
-1 -14 -4 1062.91 41.14
-1 -14 4 1122.49 60.06
0 -14 -4 845.37 35.08
0 -14 4 813.57 32.66
0 -14 4 893.15 52.53
1 -14 4 1015.62 35.92
1 -14 -4 1061.4 38.88
2 -14 -4 1063.4 38.59
2 -14 -4 1101.63 29.53
2 -14 4 1179.7 59.94
2 -14 4 1072.97 37.13
3 -14 -4 690.6 30.36
3 -14 4 707.58 29.7
3 -14 4 720.24 46.2
4 -14 -4 468.74 23.75
-3 -16 4 173.35 29.43
-2 -16 4 331.01 37.02
-1 16 -4 281.4 19.24
-1 -16 4 233.73 31.21
0 16 -4 177.03 16.56
0 -16 -4 159.9 17
0 -16 4 189.79 17.94
0 -16 4 177.19 27.31
1 -16 4 264.18 19.77
1 -16 -4 235.54 19.49
1 16 -4 254.64 21.15
1 -16 4 237.4 30.64
2 -16 4 323.68 35.56
2 -16 -4 329.54 22
2 -16 -4 306.67 16.9
2 -16 4 334.8 21.79
3 -16 -4 183.68 16.73
3 -16 4 203.56 17.49
3 -16 4 168.1 28.01
-1 -18 4 70.33 20.94
0 18 -4 78.96 14.17
0 -18 4 86.04 15.06
0 -18 4 90.01 22.92
1 -18 4 48.03 18.6
1 -18 4 59.54 12.74
2 -18 -4 30.55 9.76
-5 -1 5 104.08 7.1
-5 -1 -5 103.01 13.46
-5 1 -5 102.1 11.02
-4 -1 5 135.83 7.78
-4 -1 -5 133.55 18.59
-3 -1 5 197.46 8.77
-3 1 -5 188.01 14.07
-3 -1 -5 168.74 14.29
-3 1 -5 172.42 18.73
-2 1 -5 229.91 12.21
-2 1 -5 214.51 14.91
-2 -1 5 225.59 9.16
-2 -1 -5 210.68 15.5
-1 -1 5 250.76 9.97
-1 -1 -5 245.46 11.08
-1 1 -5 233.53 11.79
0 1 -5 241.59 12.01
0 -1 -5 255.79 10.87
1 -1 -5 231.07 11.03
3 1 -5 152.9 16.32
4 1 -5 159.29 17.39
4 -1 -5 129.46 15.5
5 -1 -5 120.67 15.26
5 -1 -5 122.56 14.58
5 1 -5 140.52 16.05
-5 -3 -5 786.89 36.14
-4 3 -5 1008.89 32.44
-3 -3 -5 1243.65 40.19
-3 3 -5 1217.71 50.19
-3 -3 5 1246.97 29.97
-3 3 -5 1293.29 34.94
-2 3 -5 1513.28 56.43
-2 -3 5 1629.7 34.51
-2 -3 -5 1570.67 46.19
-2 3 -5 1634.62 38.63
-1 3 -5 1685.33 38.77
-1 3 -5 1677.26 58.6
-1 -3 -5 1663.92 48.17
-1 -3 5 1672.64 35.2
0 -3 -5 1833.35 34.95
0 3 -5 1854.01 41.58
0 -3 5 1860.68 38.16
0 3 -5 1799.3 60.89
1 -3 -5 1612.73 30.52
2 3 -5 1540.87 52.99
3 3 -5 1241.8 47.15
4 3 -5 1213.25 41.86
5 -3 -5 816.29 36.02
-5 -5 -5 1033.74 43.37
-4 5 -5 1309.27 39.66
-3 -5 -5 1733.76 50.75
-3 5 -5 1727.62 39.47
-2 5 -5 2361.46 74.2
-2 5 -5 2359.84 52.7
-2 -5 5 2279.94 47.8
-2 -5 -5 2364.41 60.51
-1 -5 5 2394.03 49.36
-1 5 -5 2509.43 53.77
-1 -5 -5 2503.89 63.31
0 5 -5 2932.69 84.35
0 -5 -5 2808.84 68.6
0 -5 5 2822.74 55.36
1 -5 -5 2462.77 40.91
2 5 -5 2278.47 69.96
4 5 -5 1623.37 51.39
-5 -7 -5 1190.77 48.25
-4 7 -5 1715.3 50.01
-3 -7 -5 2051.45 58.16
-3 7 -5 2023.26 52.99
-3 7 -5 1958.39 38.61
-2 -7 -5 3326.12 76.99
-2 -7 5 3164.35 64.38
-1 -7 5 3336.35 65.11
-1 -7 -5 3294.55 77.63
0 7 -5 4018.85 103.95
1 -7 -5 3382.3 79.3
2 7 -5 3447.36 74.49
-5 -9 -5 344.29 27.48
-4 -9 -5 548.69 31.23
-3 -9 -5 488.79 28.15
-3 9 -5 444.08 25.44
-2 -9 -5 865.12 37
-2 9 -5 886.28 24.03
-2 -9 5 831.5 29.64
-1 -9 -5 632.33 30.04
-1 9 -5 633.07 22.47
-1 -9 5 604.37 23.93
0 9 -5 893.59 29.68
1 9 -5 666.18 26.88
1 -9 5 635.43 24.71
1 -9 -5 633.71 30.32
2 9 -5 987.2 35.54
2 -9 5 884.92 30.23
2 -9 -5 912.45 37.7
3 9 -5 487.11 26.59
3 -9 -5 505.05 29.09
-4 -11 -5 93.31 15.34
-2 -11 -5 109.3 14.97
-2 -11 5 106.58 12.88
-1 11 -5 28.09 7.09
-1 -11 5 9.33 6.99
0 -11 -5 53.28 11.4
0 11 -5 73.79 9.57
1 -11 -5 17 8.28
1 11 -5 29.23 7.87
1 -11 5 21.7 7.64
2 11 -5 115.6 13.58
2 -11 5 112.24 11.93
2 -11 -5 108.03 14.02
3 -11 -5 33.02 11.27
4 -11 -5 75.63 14.05
-2 13 -5 127.31 10.59
-2 -13 -5 93.99 14.94
-2 -13 5 124.2 14.47
-1 -13 5 260.74 30.02
0 -13 -5 146.93 15.75
0 13 -5 166.35 14.42
0 -13 5 184.63 26.16
1 13 -5 216.03 17.85
1 -13 5 221.94 16.5
1 -13 -5 214.44 18.57
2 -13 -5 99.96 8.09
2 -13 -5 83.45 13.51
2 13 -5 114.73 14.6
2 -13 5 109.06 12.85
3 -13 -5 174.21 17.94
4 -13 -5 107.38 14.69
-2 -15 5 624 31.41
-1 -15 -5 754.98 36.83
-1 15 -5 826.06 30.69
-1 -15 5 834.44 54.37
0 -15 -5 767.74 35.99
0 -15 5 792.83 33.21
0 -15 5 715.21 51.68
1 -15 -5 757.29 35.34
1 15 -5 821.31 36.14
1 -15 5 809.19 53.41
1 -15 5 737.33 31.41
2 -15 -5 611.46 31.15
2 -15 5 630.27 46.89
2 -15 5 563.78 27.53
3 -15 -5 700 32.98
3 -15 5 703.66 30.49
-1 -17 -5 1237.77 49.37
-1 -17 5 1339.28 73.77
0 -17 5 1362.12 46.51
0 -17 -5 1231.22 47.83
0 17 -5 1259.6 45.02
0 -17 5 1258.43 71.62
1 -17 -5 1198.04 45.86
1 -17 5 1187.37 68.84
1 -17 5 1179.52 41.97
2 -17 -5 975.36 40.73
3 -17 -5 1009.54 40.28
2 -19 -5 607.45 32.16
-4 0 -6 1540.84 47.61
-4 0 -6 1539.93 62.43
-3 0 -6 2303.21 50.06
-3 0 -6 2290.98 58.58
-2 0 -6 3977.25 72.42
-2 0 -6 3977.73 85.24
-1 0 -6 4358.99 76.68
0 0 -6 3349.43 61.7
4 0 -6 1411.41 52.31
5 0 -6 1738.14 59.02
-5 -2 -6 1008.21 42.25
-5 -2 6 792.29 18.82
-4 2 -6 935.6 48.07
-4 -2 -6 942.75 37.39
-4 -2 6 886.05 21.18
-3 -2 -6 1302.71 43.19
-3 2 -6 1276.84 36.25
-3 -2 6 1305.81 28.06
-3 2 -6 1320.5 40.41
-3 2 -6 1235.19 53.44
-2 -2 -6 2288.34 46.65
-2 2 -6 2208.78 56.9
-2 -2 6 2335.18 42.97
-2 -2 -6 2260.46 59.96
-2 2 -6 2208.06 49.3
-2 2 -6 2151.85 71.19
-1 2 -6 2063.77 45.82
-1 -2 6 2099.06 40.99
-1 -2 -6 2109.37 42.76
-1 -2 -6 2077.67 57.96
0 2 -6 1455.53 36.37
0 -2 -6 1465.38 32.57
1 -2 -6 1942.58 39.35
2 2 -6 2118.75 66.92
3 2 -6 1285.89 49.61
4 2 -6 1030.02 45.18
5 -2 -6 1180.09 47.75
-5 -4 6 231.97 12.94
-5 -4 -6 235.88 22.9
-4 -4 6 182.39 11.71
-4 -4 -6 175.38 18.08
-3 -4 -6 235.43 18.98
-3 -4 6 235.23 12.61
-3 4 -6 265.31 25.04
-3 4 -6 215.55 15.82
-2 4 -6 581.71 23.64
-2 4 -6 630.23 38.69
-2 -4 -6 665.48 31.36
-2 -4 6 615.73 19.99
-1 4 -6 320.87 27.81
-1 4 -6 301.61 16.81
-1 -4 -6 312.22 22.01
-1 -4 6 298.14 13.85
0 -4 -6 159.12 8.98
0 -4 6 142.66 10.25
0 4 -6 141.38 19.77
1 4 -6 274.44 25.19
1 -4 -6 283.63 11.37
2 4 -6 670.69 36.94
-5 -6 -6 23.81 10.93
-5 -6 6 5.63 7.91
-4 -6 6 9.57 6.95
-3 6 -6 10.1 7.41
-3 -6 -6 1.73 8.62
-3 -6 6 3.82 6.7
-2 -6 6 139.88 11.14
-2 6 -6 118.95 13.06
-2 6 -6 140.6 20.47
-2 -6 -6 136 15.38
-1 -6 -6 17.5 9.47
-1 6 -6 24.97 13.32
-1 -6 6 13.27 5.97
-1 6 -6 17.14 8.76
0 -6 -6 -0.89 8.38
0 -6 6 2.94 5.12
0 6 -6 -1.44 11.17
1 -6 -6 11.76 4.13
2 6 -6 140.04 19.34
-5 -8 -6 372.12 29.38
-5 -8 6 378.17 21.11
-4 -8 6 607.19 25.9
-3 -8 -6 804.04 36.69
-3 -8 6 764.61 28.15
-3 8 -6 817.37 26.23
-2 -8 -6 519.37 28.74
-2 -8 6 472.84 21.14
-1 -8 6 942.7 29.81
-1 -8 -6 996.8 40.58
0 -8 6 1165.34 33.68
1 -8 -6 1056.97 42.72
2 8 -6 512.25 25.57
3 8 -6 913.16 37.12
-5 -10 6 648.29 29.32
-4 -10 6 992.67 35.9
-3 -10 -6 1138.43 45.11
-3 -10 6 1056.22 35.72
-2 -10 6 842.63 31.15
-2 10 -6 859.41 26.1
-1 -10 -6 1291.91 47.23
-1 -10 6 1186.39 36.71
-1 10 -6 1234.52 35.9
0 10 -6 1521.3 43.34
1 10 -6 1361.92 42.71
1 -10 -6 1255.8 47.8
2 -10 6 869.67 31.2
2 10 -6 911.3 35.97
2 -10 -6 941.37 41.8
3 -10 -6 1253.85 50.89
4 -10 -6 1164.41 49.97
5 -10 -6 661.69 35.9
-4 -12 6 1073.81 39.8
-3 -12 -6 1182.93 48.66
-3 -12 6 1124.16 39.9
-2 -12 -6 1206.15 48.15
-2 12 -6 1168.58 32.76
-2 -12 6 1224 40.14
-1 -12 6 1415.56 42.82
-1 12 -6 1485.04 41.43
0 12 -6 2094.44 54.56
0 -12 -6 1960.42 61.29
1 12 -6 1519.73 47.52
1 -12 -6 1469.11 52.38
2 -12 6 1173.54 38.4
2 -12 -6 1184.92 47.13
3 -12 -6 1257.67 50.46
4 -12 -6 1314.67 51.33
-3 -14 6 710.51 33.16
-2 -14 -6 947.15 43.3
-2 -14 6 850.63 35.01
-1 -14 6 1011.14 37.86
-1 14 -6 1077.14 36.01
0 -14 -6 1580.44 54.66
0 14 -6 1567.2 48.72
1 -14 -6 1069.27 43.83
1 14 -6 1098.17 41.96
1 -14 6 1089.27 37.81
2 -14 6 908.27 34.4
2 -14 -6 956.29 41.93
3 -14 -6 842.08 39.92
4 -14 -6 825.96 38.36
-1 -16 -6 122.47 17.64
0 -16 -6 242.26 22.27
1 -16 -6 101.94 16.39
2 -16 -6 112.64 16.74
3 -16 -6 118.48 16.58
-4 1 -7 99.46 21.3
-4 1 -7 98.24 14.82
-4 -1 -7 111.63 14.7
-4 -1 -7 102.24 22.2
-3 1 -7 183.14 22.44
-3 -1 -7 149.6 12.22
-3 1 -7 153.27 12.8
-3 1 -7 179.03 16.87
-3 -1 -7 149.2 16.13
-2 -1 -7 133.61 11.12
-2 1 -7 142.37 15.53
-2 -1 -7 125.62 15.2
-2 1 -7 123.01 11.21
-1 1 -7 210.12 13.47
-1 -1 -7 219.58 13.17
0 -1 -7 160.78 11.38
0 1 -7 152.75 12.12
3 1 -7 154.64 19.77
4 1 -7 89.62 16.42
4 -1 -7 116.69 17.27
-4 3 -7 656.23 44.35
-4 3 -7 731.58 31.9
-4 -3 -7 668.62 33.81
-4 -3 7 637.93 18.22
-3 -3 -7 1011.68 40.33
-3 -3 -7 957.95 28.82
-3 3 -7 1019.59 52.16
-3 -3 7 1021.97 25
-3 3 -7 964.19 36.69
-3 3 -7 962.37 32.59
-2 3 -7 735.72 27.76
-2 3 -7 766.59 43.98
-2 -3 -7 782.7 24.4
-2 -3 7 803.8 22.2
-2 -3 -7 768.31 35.22
-1 3 -7 1241.63 36.43
-1 -3 7 1281.4 30.82
-1 3 -7 1225.53 55.62
-1 -3 -7 1292.6 31.88
-1 -3 -7 1227.98 46.42
0 3 -7 965.87 31.45
0 -3 -7 932.63 25.78
0 3 -7 893.77 46.47
1 -3 -7 1188.7 29.52
1 3 -7 1194.06 53.32
2 3 -7 781.12 41.65
3 3 -7 1011.76 47.69
4 3 -7 649.46 38.84
-5 -5 -7 944.24 46.42
-4 -5 -7 953.59 42.68
-4 -5 7 1005.02 27.54
-3 -5 -7 1548.12 53.27
-3 5 -7 1573 66.34
-3 5 -7 1503.54 46.36
-3 -5 7 1618.16 37.46
-2 5 -7 1396.39 41.56
-2 5 -7 1410.27 61.89
-2 -5 7 1434.35 35.14
-2 -5 -7 1448.23 50.98
-1 -5 -7 2183.23 44.79
-1 5 -7 2196.49 54.32
-1 5 -7 2297.5 81.24
-1 -5 7 2163.48 47.06
-1 -5 -7 2246.53 66.3
0 -5 7 1826.56 42.59
0 -5 -7 1910.52 39.25
0 -5 -7 1795.05 58.73
0 5 -7 1864.89 71.83
1 -5 -7 2169.79 42.02
1 5 -7 2113.19 76.19
2 5 -7 1397.24 58.6
3 5 -7 1529.24 60.63
-5 -7 -7 724.4 43.71
-4 -7 7 1126.57 33.2
-4 -7 -7 1114.07 47.32
-3 -7 7 1533.81 40.22
-3 -7 -7 1541.39 55.36
-3 7 -7 1629.28 46.91
-2 7 -7 1702.71 69.93
-2 7 -7 1649.93 48.76
-2 -7 7 1634.79 41.15
-2 -7 -7 1714.13 56.95
-1 7 -7 2320.79 84.77
-1 -7 7 2284.14 51.6
-1 -7 -7 2433.25 69.89
0 7 -7 2360.02 84
0 -7 7 2279.17 51.19
0 -7 -7 2350.14 69.77
1 7 -7 2262.54 81.15
1 -7 7 2407.49 53.96
1 -7 -7 2350.42 43.66
-4 -9 7 478.12 23.01
-3 -9 -7 499.95 31.43
-3 -9 7 491.45 23.17
-2 -9 -7 574.62 32.86
-2 -9 7 528.35 23.32
-1 -9 7 599.32 24.4
-1 -9 -7 650.86 34.85
0 -9 7 741.06 27.18
1 -9 -7 661.27 18
1 9 -7 627.2 28.57
1 -9 -7 636.97 35.94
2 -9 -7 603.7 36.35
3 -9 -7 541.03 37.07
-4 -11 7 44.61 11.01
-3 -11 -7 32.56 12.03
-3 -11 7 42.19 10.35
-2 11 -7 13.06 6.56
-2 -11 7 17.61 8.33
-1 -11 -7 32.78 11.38
-1 11 -7 23.79 7.95
-1 -11 7 31.94 8.25
0 11 -7 44.65 9.86
0 -11 7 31.31 8.64
1 -11 -7 24.77 11.73
1 11 -7 34.53 9.72
2 -11 -7 34.52 12.75
3 -11 -7 38.12 15.44
4 -11 -7 74.25 18.16
-3 -13 7 100.31 14.36
-2 -13 7 137.33 15.07
-2 -13 -7 157.13 19.83
-1 -13 7 131.85 14.02
-1 13 -7 149.65 14.02
0 -13 -7 118.04 17.54
0 13 -7 108.74 13.96
0 -13 7 128.71 13.75
1 -13 -7 114.56 17.52
2 -13 -7 131 19.96
2 -13 7 135.49 13.97
3 -13 -7 115.34 19.13
1 -15 -7 518.67 33.47
2 -15 -7 728.78 39.05
-4 0 -8 1171.78 46.52
-4 0 -8 1183.96 65.49
-3 0 -8 1554.28 68.51
-3 0 -8 1667.31 55.12
-2 0 -8 1037.22 43.54
-2 0 -8 1045.21 32.61
-1 0 -8 2266.44 52.03
0 0 -8 2048.82 48.73
4 0 -8 1063.17 51.76
-4 -2 -8 969.42 42.54
-4 2 -8 1045.51 59.78
-4 -2 -8 1048.76 62.29
-3 2 -8 1370.79 48.08
-3 2 -8 1209.47 60.04
-3 -2 -8 1342.47 49.12
-2 2 -8 850.61 30.2
-2 2 -8 847.19 47.17
-2 2 -8 806.77 37.46
-2 -2 -8 808.15 27.46
-2 -2 -8 882.32 40.42
-1 2 -8 1777.81 46.64
-1 -2 -8 1814.73 60.41
-1 -2 -8 1841.24 43.47
0 -2 -8 1722.33 41.63
0 2 -8 1689.02 45.41
1 2 -8 1613.05 64.35
2 2 -8 809.23 44.34
3 2 -8 1368.25 58.43
4 2 -8 949.43 49.8
-4 -4 -8 376.48 26.95
-4 -4 8 353.82 13.54
-3 -4 -8 367.57 26.66
-3 4 -8 355.93 33.69
-3 -4 8 386.65 15.2
-3 4 -8 348.5 24.2
-2 4 -8 185.9 16.39
-2 -4 8 194.82 11.74
-2 -4 -8 179.58 12.46
-2 4 -8 174.87 24.16
-2 -4 -8 201.8 20.75
-1 4 -8 353.53 31.95
-1 4 -8 392.65 21.66
-1 -4 -8 407.81 17.73
-1 -4 -8 416.75 28.59
0 4 -8 467.23 36.31
0 -4 -8 574.42 20.72
1 4 -8 381.38 32.45
1 -4 -8 392.07 16.75
2 4 -8 201.88 24.07
-4 -6 -8 -1.01 11.47
-4 -6 8 2.82 6.03
-3 6 -8 0.78 10.55
-3 -6 -8 6.1 10.87
-3 -6 8 14.75 6.47
-2 -6 -8 41.76 13.28
-2 6 -8 69.56 18.59
-2 -6 -8 60.76 7.85
-2 -6 8 61.69 8.72
-1 -6 -8 43.3 12.79
-1 -6 -8 54.77 7.61
-1 -6 8 56.21 8.52
-1 6 -8 50.41 17.31
0 6 -8 8.64 13.06
0 -6 -8 11.43 10.62
0 -6 -8 4.91 5.84
1 -6 -8 48.58 7.45
2 6 -8 38.33 15.58
-4 -8 8 150.21 12.72
-3 -8 -8 222.48 23.17
-3 -8 8 264.14 16.2
-2 -8 -8 346.54 27.21
-2 -8 8 331.25 17.86
-1 -8 8 332.07 17.91
-1 -8 -8 364.4 27.68
0 -8 -8 128.13 18.47
0 -8 -8 175.25 10.92
0 -8 8 147.32 12.35
1 -8 -8 346.22 14.1
2 -8 -8 358.78 31.41
-4 -10 8 562.5 25.01
-3 -10 8 764.23 29.26
-2 -10 -8 1059.29 48.43
-2 -10 8 1070.94 34.99
-1 10 -8 1134.81 37.94
-1 -10 8 1077.19 35.18
-1 -10 -8 1122.32 49.79
0 10 -8 871.73 34.38
0 -10 8 854.38 30.38
1 -10 8 1132.92 36.26
1 -10 -8 1177.63 52.56
2 -10 -8 1363.72 59.27
3 -10 -8 1070.05 56.04
-2 -12 8 1342.63 41.94
-1 -12 -8 1344.52 55.27
-1 -12 8 1299.86 40.66
0 -12 8 1218.77 39.04
1 -12 -8 1350.33 57.2
2 -12 -8 1552.18 63.52
-3 1 -9 60.29 14.87
-3 -1 -9 60.28 14.21
-2 1 -9 42.91 13.04
-2 -1 -9 15.48 11.39
-1 -1 -9 81.47 15.56
-1 -1 -9 42.57 9.63
-1 1 -9 69.71 11.34
0 -1 -9 32.91 9.59
0 1 -9 20.1 9.69
-4 -3 -9 374.34 28.85
-3 3 -9 681.72 35.69
-3 -3 -9 584.98 34.39
-2 3 -9 566.42 34.12
-2 -3 -9 553.36 34.61
-1 3 -9 760.91 31.09
-1 -3 -9 807.27 42.47
-1 -3 -9 836.79 28.3
0 -3 -9 588.21 23.46
-3 -5 -9 1262.36 52.17
-2 -5 -9 1422.92 57.04
-1 -5 -9 2007.32 47.17
-1 -5 -9 1945.57 68.97
0 -5 -9 1780.69 65.41
0 -5 -9 1757.42 42.45
1 -5 -9 1912.04 43.85
-3 -7 9 696.6 24.08
-2 -7 9 963.2 29.56
-2 -7 -9 911.49 45.36
-1 -7 9 930.31 30
-1 -7 -9 982.96 29.11
-1 -7 -9 1020.67 48.01
0 -7 -9 1067.91 50.33
0 -7 -9 1054.63 30.38
-3 -9 9 429.73 20.95
-2 -9 9 686.75 26.51
-1 -9 -9 574.15 21.13
-1 -9 9 535.65 23.51
-1 -9 -9 590.26 36.89
0 -9 9 641.03 26.6
0 -9 -9 746.99 42.63
1 -9 -9 610.24 41.14
-1 -11 9 13.62 7.9
-3 0 -10 1028.28 48.44
-2 0 -10 1507.76 61.08
-1 0 -10 1593.8 62.72
0 0 -10 1266.39 40.54
-3 -2 -10 601.23 36.7
-2 2 -10 995.66 47.52
-2 -2 -10 978.23 48.98
-1 -2 -10 953.66 48.82
0 -2 -10 746.04 29.67
-2 4 -10 448.82 33.45
-2 -4 -10 414.4 32.79
-1 -4 -10 244.46 27.29
0 -4 -10 272.3 28.13
loop_
_exptl_crystal_face_index_h
_exptl_crystal_face_index_k
_exptl_crystal_face_index_l
_exptl_crystal_face_perp_dist
11 -2 0 0.0533
1 1 7 0.0533
-8 0 -5 0.0618
3 -2 -7 0.0749
9 12 2 0.0662
9 -11 2 0.0685
-1 -21 0 0.0662
-10 -7 -3 0.0449
-10 7 -3 0.0449
1 21 0 0.0643
7 1 5 0.0652
-10 4 3 0.0468
-2 4 7 0.0445
8 -8 4 0.0693
10 10 0 0.0753
-3 15 -4 0.0830
-10 -1 -2 0.0324
-2 -17 4 0.0587
loop_
_geom_angle_atom_site_label_1
_geom_angle_atom_site_label_2
_geom_angle_atom_site_label_3
_geom_angle
_geom_angle_site_symmetry_1
_geom_angle_site_symmetry_3
_geom_angle_publ_flag
O2 Eu1 O1 66.80(14) . . ?
O3 Eu1 O1 76.46(12) . . ?
O3 Eu1 O1 76.46(12) 1_655 . ?
O3 Eu1 O2 87.72(13) 1_655 . ?
O3 Eu1 O2 87.72(13) . . ?
O3 Eu1 O3 152.1(2) . 1_655 ?
O4 Eu1 O1 76.7(3) 3_755 . ?
O4 Eu1 O1 76.7(3) . . ?
O4 Eu1 O1 132.0(3) 8_565 . ?
O4 Eu1 O1 132.0(3) 6_765 . ?
O4 Eu1 O2 77.5(4) 8_565 . ?
O4 Eu1 O2 131.9(3) 3_755 . ?
O4 Eu1 O2 77.5(4) 6_765 . ?
O4 Eu1 O2 131.9(3) . . ?
O4 Eu1 O3 113.50(15) 3_755 . ?
O4 Eu1 O3 113.50(15) . 1_655 ?
O4 Eu1 O3 70.98(17) 8_565 . ?
O4 Eu1 O3 53.07(18) 3_755 1_655 ?
O4 Eu1 O3 134.36(15) 6_765 . ?
O4 Eu1 O3 134.36(15) 8_565 1_655 ?
O4 Eu1 O3 53.07(18) . . ?
O4 Eu1 O3 70.98(17) 6_765 1_655 ?
O4 Eu1 O4 62.0(2) 3_755 . ?
O4 Eu1 O4 63.8(2) 8_565 6_765 ?
O4 Eu1 O4 108.26(11) 3_755 6_765 ?
O4 Eu1 O4 108.26(11) 8_565 . ?
O5 Eu1 O1 147.5(2) . . ?
O5 Eu1 O2 145.7(3) . . ?
O5 Eu1 O3 99.60(13) . 1_655 ?
O5 Eu1 O3 99.60(13) . . ?
O5 Eu1 O4 73.5(3) . 6_765 ?
O5 Eu1 O4 75.6(3) . . ?
O5 Eu1 O4 73.5(3) . 8_565 ?
O5 Eu1 O4 75.6(3) . 3_755 ?
C1 O1 Eu1 117.5(6) 2_765 . ?
C2 O2 Eu1 122.1(6) . . ?
Eu1 O3 Eu1 152.1(2) . 1_455 ?
C3 O3 Eu1 93.76(15) . 1_455 ?
C3 O3 Eu1 93.76(15) . . ?
C3 O4 Eu1 94.4(5) . . ?
C3 O4 Eu1 147.3(5) . 6_764 ?
H5a O5 Eu1 130(9) . . ?
H5b O5 Eu1 125(9) . . ?
H5b O5 H5a 104.7(8) . . ?
O1 C1 O1 121.7(12) 2_765 . ?
C2 C1 O1 119.1(6) . . ?
C2 C1 O1 119.1(6) . 2_765 ?
O2 C2 O2 130.9(12) 2_765 . ?
C1 C2 O2 114.5(6) . . ?
C1 C2 O2 114.5(6) . 2_765 ?
O4 C3 O3 117.9(4) . . ?
O4 C3 O3 117.9(4) 3_655 . ?
O4 C3 O4 123.6(9) 3_655 . ?
loop_
_geom_bond_atom_site_label_1
_geom_bond_atom_site_label_2
_geom_bond_distance
_geom_bond_site_symmetry_2
_geom_bond_publ_flag
Eu1 O1 2.483(10) . ?
Eu1 O2 2.377(13) . ?
Eu1 O3 2.4765(13) 1_655 ?
Eu1 O3 2.4765(13) . ?
Eu1 O4 2.405(7) 6_765 ?
Eu1 O4 2.405(7) 8_565 ?
Eu1 O4 2.466(7) 3_755 ?
Eu1 O4 2.466(7) . ?
Eu1 O5 2.412(5) . ?
O1 C1 1.232(12) 2_765 ?
O2 C2 1.280(14) . ?
O3 C3 1.291(9) . ?
O4 C3 1.286(6) . ?
O5 H5a 0.8401 . ?
O5 H5b 0.8401 . ?
C1 C2 1.544(10) . ?
loop_
_geom_torsion_atom_site_label_1
_geom_torsion_atom_site_label_2
_geom_torsion_atom_site_label_3
_geom_torsion_atom_site_label_4
_geom_torsion
_geom_torsion_site_symmetry_1
_geom_torsion_site_symmetry_2
_geom_torsion_site_symmetry_3
_geom_torsion_site_symmetry_4
_geom_torsion_publ_flag
Eu1 O1 C1 O1 180.0 . . 2_765 2_765 ?
Eu1 O1 C1 C2 0.0 . . 2_765 2_765 ?
Eu1 O2 C2 O2 -180.0 . . . 2_765 ?
Eu1 O2 C2 C1 0.0 . . . . ?
Eu1 O3 C3 O4 162.5(6) 1_455 . . . ?
Eu1 O3 C3 O4 -162.5(6) . . . 3_655 ?
Eu1 O3 C3 O4 9.4(7) . . . . ?
Eu1 O3 C3 O4 -9.4(7) 1_455 . . 3_655 ?
Eu1 O4 C3 O3 155.5(13) 6_764 . . . ?
Eu1 O4 C3 O3 155.5(13) 8_564 . . . ?
Eu1 O4 C3 O3 -9.4(7) . . . . ?
Eu1 O4 C3 O3 -9.4(7) 3_755 . . . ?
Eu1 O4 C3 O4 -33.1(12) 6_764 . . 3_655 ?
Eu1 O4 C3 O4 162.0(6) . . . 3_655 ?
Eu1 O4 C3 O4 -33.1(12) 8_564 . . 3_655 ?
Eu1 O4 C3 O4 162.0(6) 3_755 . . 3_655 ?
O1 C1 C2 O2 -180.0 2_765 . . . ?
O1 C1 C2 O2 0.0 . 2_765 2_765 . ?
loop_
_restr_distance_atom_site_label_1
_restr_distance_atom_site_label_2
_restr_distance_site_symmetry_2
_restr_distance_target
_restr_distance_target_weight_param
_restr_distance_diff
O5 H5a 1 0.8400 0.0050 -0.0001
O5 H5b 1 0.8400 0.0050 -0.0001
H5b H5a 1 1.3300 0.0050 -0.0000
loop_
_restr_U_iso_atom_site_label
_restr_U_iso_weight_param
O5 0.0100
loop_
_restr_U_similar_atom_site_label_1
_restr_U_similar_atom_site_label_2
_restr_U_similar_weight_param
O1 C1 0.0400
O2 C2 0.0400
O3 C3 0.0400
O4 C3 0.0400
C1 C2 0.0400
loop_
_twin_individual_id
_twin_individual_mass_fraction_refined
1 0.58(6)
2 0.42(6)
loop_
_exptl_oxdiff_crystal_face_indexfrac_h
_exptl_oxdiff_crystal_face_indexfrac_k
_exptl_oxdiff_crystal_face_indexfrac_l
_exptl_oxdiff_crystal_face_x
_exptl_oxdiff_crystal_face_y
_exptl_oxdiff_crystal_face_z
11.0682 -2.0691 -0.3667 -0.1544 -0.4262 0.8914
0.6901 1.3929 6.7406 0.2943 0.8414 0.4532
-7.5155 0.2238 -5.0000 -0.1311 -0.3842 -0.9139
2.6324 -1.9451 -6.5447 -0.3269 -0.9301 -0.1677
8.5243 11.7856 2.2669 0.5756 -0.1409 0.8055
8.7194 -11.1995 2.2968 -0.4652 0.1069 0.8787
-0.6103 -21.3961 -0.1817 -0.9727 0.2319 -0.0092
-9.6695 -6.8841 -2.5653 -0.3591 0.0898 -0.9290
-9.7134 6.6733 -2.5641 0.2552 -0.0565 -0.9652
0.6103 21.3961 0.1817 0.9727 -0.2319 0.0092
6.8373 1.2320 5.3332 0.2115 0.4365 0.8745
-10.0627 3.9206 2.6150 0.3120 0.6636 -0.6799
-1.9130 4.0570 6.5408 0.4193 0.8804 0.2214
7.8839 -8.3902 3.9874 -0.2756 0.3276 0.9037
9.7940 10.1937 -0.1065 0.4156 -0.4799 0.7727
-2.5482 15.4799 -4.4224 0.5584 -0.6551 -0.5089
-10.4719 -1.1285 -2.2842 -0.0851 0.0928 -0.9920
-2.2960 -17.3846 3.7052 -0.6487 0.7575 0.0734
loop_
_restr_rigu_atom_site_label_1
_restr_rigu_atom_site_label_2
_restr_rigu_target_weight_param
_restr_rigu_u13_diff
_restr_rigu_u23_diff
_restr_rigu_u33_diff
O1 C1 0.002000 -0.000374 0.000768 -0.000715
O1 C2 0.002000 0.003050 -0.003413 -0.001916
O2 C1 0.002000 -0.001189 -0.001363 -0.000431
O2 C2 0.002000 -0.000534 -0.001286 -0.001395
O3 O4 0.002000 -0.000536 0.001475 0.001176
O3 C3 0.002000 0.000029 0.000034 0.000662
O4 C3 0.002000 -0.000364 0.000103 0.000155
C1 C2 0.002000 -0.000000 0.000000 0.001047
